.Version 9.3.2 of ABINIT

 ABINIT is a project of the Universite Catholique de Louvain,
 Corning Inc. and other collaborators, see ~abinit/doc/developers/contributors.txt .
 acknowledgments of the ABINIT effort.

.Starting date : Tue 28 Sep 2021.
- ( at 12h18 )

- input  file    -> abi.in
- output file    -> abi.out
- root for input  files -> abi-i
- root for output files -> abi-o

- inpspheads : Reading pseudopotential header in XML form from
-   ~/ABINIT_PAW_PBE/paw_pbe_standard/La.xml
- inpspheads : Reading pseudopotential header in XML form from
-   ~/ABINIT_PAW_PBE/paw_pbe_standard/Mo.xml
- inpspheads : Reading pseudopotential header in XML form from
-   ~/ABINIT_PAW_PBE/paw_pbe_standard/O.xml

 DATASET    1 : space group P1 (#  1); Bravais aP (primitive triclinic)
     intxc =       0    ionmov =       2      iscf =       7    lmnmax =      32
     lnmax =       8     mgfft =      75  mpssoang =       4    mqgrid =    3519
     natom =      26  nloc_mem =       2    nspden =       1   nspinor =       1
    nsppol =       1      nsym =       1    n1xccc =       1    ntypat =       3
    occopt =       1   xclevel =       2
-    mband =         104        mffmem =           1         mkmem =           1
       mpw =        1423          nfft =       27000          nkpt =           4
Pmy_natom=         7
 PAW method is used; the additional fine FFT grid is defined by:
   mgfftf=        75    nfftf =     27000
  Rough estimation (10% accuracy) of disk space for files :

------------- Echo of variables that govern the present computation ------------
-
- outvars: echo of selected default values
-   iomode0 =  0 , fftalg0 =512 , wfoptalg0 = 10
-
- outvars: echo of global parameters not present in the input file
-  max_nthreads =    1
-
 -outvars: echo values of preprocessed input variables --------
-          iomode           1
            acell      1.0000000000E+00  1.0000000000E+00  1.0000000000E+00 Bohr
              amu      1.38905500E+02  9.59400000E+01  1.59994000E+01
        autoparal           1
           bandpp          26
     densfor_pred           6
           diemac      4.00000000E+00
          dilatmx      1.04000000E+00
             ecut      3.00000000E+01 Hartree
           ecutsm      5.00000000E-01 Hartree
-          fftalg         401
           ionmov           2
             iscf           7
              ixc     -116133
           jdtset        1
              kpt      2.50000000E-01  2.50000000E-01  2.50000000E-01
                      -2.50000000E-01  2.50000000E-01  2.50000000E-01
                       2.50000000E-01 -2.50000000E-01  2.50000000E-01
                      -2.50000000E-01 -2.50000000E-01  2.50000000E-01
         kptrlatt        2    0    0      0    2    0      0    0    2
          kptrlen      2.65094656E+01
P           mkmem           1
            natom          26
            nband         104
           ndtset           1
            ngfft          72      75      75
          ngfftdg          72      75      75
             nkpt           4
-           npfft          15
-           npkpt           4
            nstep         100
             nsym           1
            ntime         150
           ntypat           3
              occ      2.000000  2.000000  2.000000  2.000000  2.000000  2.000000
                       2.000000  2.000000  2.000000  2.000000  2.000000  2.000000
                       2.000000  2.000000  2.000000  2.000000  2.000000  2.000000
                       2.000000  2.000000  2.000000  2.000000  2.000000  2.000000
                       2.000000  2.000000  2.000000  2.000000  2.000000  2.000000
                       2.000000  2.000000  2.000000  2.000000  2.000000  2.000000
                       2.000000  2.000000  2.000000  2.000000  2.000000  2.000000
                       2.000000  2.000000  2.000000  2.000000  2.000000  2.000000
                       2.000000  2.000000  2.000000  2.000000  2.000000  2.000000
                       2.000000  2.000000  2.000000  2.000000  2.000000  2.000000
                       2.000000  2.000000  2.000000  2.000000  2.000000  2.000000
                       2.000000  2.000000  2.000000  2.000000  2.000000  2.000000
                       2.000000  2.000000  2.000000  2.000000  2.000000  2.000000
                       2.000000  2.000000  2.000000  2.000000  2.000000  2.000000
                       2.000000  2.000000  2.000000  2.000000  2.000000  2.000000
                       2.000000  2.000000  2.000000  2.000000  2.000000  2.000000
                       2.000000  2.000000  2.000000  2.000000  2.000000  2.000000
                       2.000000  2.000000
        paral_kgb           1
        pawecutdg      3.00000000E+01 Hartree
         pawmixdg           1
         pawxcdev           0
           prteig           0
            rprim      1.3729791650E+01  8.9808125004E-03 -2.8192424199E-01
                       8.9808125004E-03  1.3573727796E+01  1.5717417104E-02
                      -2.8192424199E-01  1.5717417104E-02  1.3251724915E+01
           shiftk      5.00000000E-01  5.00000000E-01  5.00000000E-01
          spgroup           1
           tolmxf      1.00000000E-10
           tolvrs      1.00000000E-20
            typat      1  1  1  1  2  2  2  2  3  3  3  3  3  3  3  3  3  3  3  3
                       3  3  3  3  3  3
           useylm           1
         wfoptalg         114
              wtk        0.25000    0.25000    0.25000    0.25000
           xangst      6.2971966624E+00  6.2980375187E+00  5.7788913554E+00
                       2.3922902592E+00  4.7711787395E+00  8.5974160121E-01
                       7.4441305332E-01  2.7057341685E+00  4.5959287518E+00
                       4.8000372694E+00  1.2017595275E+00  2.4859855498E+00
                       1.3023664179E+00  1.3895742310E+00  1.3213972983E+00
                       4.8200407227E+00  2.3741960132E+00  6.0363280166E+00
                       5.9064057538E+00  4.9932304991E+00  2.0462335595E+00
                       2.2226626028E+00  5.9715840450E+00  4.3409049196E+00
                       2.5426333352E+00  2.0897771667E+00  2.3660858384E+00
                       5.8498661395E+00  1.3115194518E+00  4.7148151733E+00
                       4.6426763683E+00  5.6557385015E+00  1.0100167599E+00
                       1.1815903017E+00  4.8986165633E+00  5.6562906675E+00
                       7.2102058535E+00  1.4133257144E+00  2.2856126190E+00
                       3.3491258292E+00  2.3316694832E+00  5.0475994744E+00
                      -1.0860209782E-02  5.0422875514E+00  1.0689557901E+00
                       3.6851377507E+00  5.9018512262E+00  5.3416636400E+00
                       1.5277864880E+00  7.0546924391E+00  4.6199331587E-01
                       1.1431867510E+00  1.7650930133E-01  4.7337926283E+00
                       5.8934994510E+00  3.7652298192E+00  5.6461845203E+00
                       5.7222541862E+00  3.4632597234E+00  2.9026654965E+00
                       9.7234986997E-01  2.6278444587E+00  7.0754367314E+00
                       6.0632335748E+00  6.2187450398E+00  3.3094377188E+00
                       1.6427509914E+00  4.5257044885E+00  3.2207221360E+00
                       5.5435210528E+00  9.1056346085E-01  1.3611012512E-01
                       4.0852770652E+00  3.0374931249E+00  7.5889747639E+00
                       2.9716430283E+00  6.6540473504E+00  2.8095525291E+00
            xcart      1.1899977097E+01  1.1901566085E+01  1.0920522013E+01
                       4.5207734203E+00  9.0162211487E+00  1.6246761713E+00
                       1.4067368005E+00  5.1130965669E+00  8.6850466672E+00
                       9.0707558667E+00  2.2709963845E+00  4.6978318595E+00
                       2.4611158546E+00  2.6259147379E+00  2.4970790065E+00
                       9.1085569153E+00  4.4865802507E+00  1.1407006800E+01
                       1.1161489304E+01  9.4358381616E+00  3.8668210314E+00
                       4.2002236050E+00  1.1284658424E+01  8.2031214669E+00
                       4.8048806598E+00  3.9491065239E+00  4.4712542414E+00
                       1.1054644918E+01  2.4784125818E+00  8.9097094447E+00
                       8.7733868597E+00  1.0687796847E+01  1.9086550658E+00
                       2.2328820714E+00  9.2570437347E+00  1.0688840290E+01
                       1.3625314425E+01  2.6707985368E+00  4.3191818957E+00
                       6.3289306018E+00  4.4062167556E+00  9.5385806351E+00
                      -2.0522822234E-02  9.5285425555E+00  2.0200336914E+00
                       6.9639011108E+00  1.1152882495E+01  1.0094281374E+01
                       2.8870980518E+00  1.3331436662E+01  8.7304084222E-01
                       2.1603098781E+00  3.3355423941E-01  8.9455716373E+00
                       1.1137099927E+01  7.1152531857E+00  1.0669742439E+01
                       1.0813493275E+01  6.5446124042E+00  5.4852428438E+00
                       1.8374749596E+00  4.9659063467E+00  1.3370637693E+01
                       1.1457850936E+01  1.1751725016E+01  6.2539309425E+00
                       3.1043494783E+00  8.5523420417E+00  6.0862827871E+00
                       1.0475736602E+01  1.7207155676E+00  2.5721086039E-01
                       7.7200548303E+00  5.7400301365E+00  1.4341083933E+01
                       5.6155914882E+00  1.2574327168E+01  5.3092848359E+00
             xred      8.8344033051E-01  8.7524965174E-01  8.4183973533E-01
                       3.3147929794E-01  6.6387206913E-01  1.2886577995E-01
                       1.1571187801E-01  3.7585287808E-01  6.5740582982E-01
                       6.6812061797E-01  1.6643945650E-01  3.6852374247E-01
                       1.8307191095E-01  1.9311211533E-01  1.9209998765E-01
                       6.8116516434E-01  3.2907037823E-01  8.7489528421E-01
                       8.1881782204E-01  6.9425566027E-01  3.0839409553E-01
                       3.1820687787E-01  8.3042628187E-01  6.2480768327E-01
                       3.5684740922E-01  2.9030231714E-01  3.4465666948E-01
                       8.1919814427E-01  1.8124847553E-01  6.8955645859E-01
                       6.4170765552E-01  7.8678239707E-01  1.5674954290E-01
                       1.7880909665E-01  6.8092665908E-01  8.0959637852E-01
                       9.9938691704E-01  1.9569936195E-01  3.4696293771E-01
                       4.7573189126E-01  3.2345409698E-01  7.2953650841E-01
                       1.1596627671E-03  7.0180786635E-01  1.5162780954E-01
                       5.2252387345E-01  8.2041264296E-01  7.7187677969E-01
                       2.1105860014E-01  9.8193021336E-01  6.9206837391E-02
                       1.7126475529E-01  2.3674357193E-02  6.7866510070E-01
                       8.2770295444E-01  5.2269338291E-01  8.2214780695E-01
                       7.9611422120E-01  4.8112792998E-01  4.3029301396E-01
                       1.5436933621E-01  3.6457315054E-01  1.0118251087E+00
                       8.4399738009E-01  8.6464541931E-01  4.8886347346E-01
                       2.3520970920E-01  6.2937345930E-01  4.6353980484E-01
[...]
 kpt#   1, nband=104, wtk=  0.25000, kpt=  0.2500  0.2500  0.2500 (reduced coord)
  -2.13271   -2.13264   -2.12956   -2.12906   -1.19181   -1.19176   -1.19027   -1.19024
  -1.18671   -1.18620   -1.18455   -1.18446   -1.18111   -1.18095   -1.18067   -1.18032
  -0.98580   -0.98452   -0.98360   -0.98308   -0.52701   -0.52493   -0.51454   -0.51159
  -0.50950   -0.50288   -0.49828   -0.49722   -0.49428   -0.48742   -0.48619   -0.48183
  -0.47977   -0.47842   -0.47586   -0.47245   -0.46967   -0.46575   -0.38654   -0.38396
  -0.38077   -0.37846   -0.37463   -0.37179   -0.36907   -0.36464   -0.36270   -0.36189
  -0.35407   -0.34283   -0.06845   -0.06259   -0.05877   -0.05385   -0.05198   -0.04818
  -0.04457   -0.04265   -0.03756   -0.03264   -0.03102   -0.02631   -0.02502   -0.02215
  -0.02063   -0.01813   -0.01582   -0.01171   -0.00993   -0.00740    0.00165    0.00532
   0.01237    0.01696    0.02348    0.02660    0.03045    0.03438    0.03717    0.04250
   0.04387    0.05028    0.05321    0.05682    0.05985    0.06166    0.06342    0.06749
   0.07011    0.07260    0.07538    0.07943    0.08258    0.08467    0.08724    0.08867
   0.08939    0.09256    0.09578    0.09859    0.10095    0.10379    0.10936    0.11701
 prteigrs : prtvol=0 or 1, do not print more k-points.

--- !EnergyTerms
iteration_state     : {dtset: 1, itime: 150, icycle: 1, }
comment             : Components of total free energy in Hartree
kinetic             :  2.13955564265263E+02
hartree             :  1.86130003608949E+02
xc                  : -9.11967645749156E+01
Ewald energy        : -5.04077473813342E+02
psp_core            :  3.63725894013045E+01
local_psp           : -5.80042154630035E+02
spherical_terms     :  4.45063335707358E+01
total_energy        : -6.94351902172040E+02
total_energy_eV     : -1.88942761439246E+04
...

--- !EnergyTermsDC
iteration_state     : {dtset: 1, itime: 150, icycle: 1, }
comment             : '"Double-counting" decomposition of free energy'
band_energy         : -7.71066190602172E+01
Ewald energy        : -5.04077473813342E+02
psp_core            :  3.63725894013045E+01
xc_dc               : -1.58270245031267E+02
spherical_terms     :  8.72984633147727E+00
total_energy_dc     : -6.94351902172045E+02
total_energy_dc_eV  : -1.88942761439247E+04
...

 rms coord change=  2.4272E-02   atom, delta coord (reduced):
     1        0.005810816093     -0.001041739690     -0.002367913273
     2       -0.007054676216     -0.033620674120     -0.010525313679
     3       -0.006272922534     -0.001479240947      0.001861793862
     4        0.008699244486     -0.034048260109      0.010221572224
     5        0.025178386996     -0.025665198599      0.008843817344
     6        0.009438125637      0.011429320073      0.005307424638
     7       -0.026566123203     -0.025393190024     -0.009814725452
     8       -0.008972094855      0.009720712155     -0.004419968351
     9        0.039132445368      0.025247347690     -0.055874501961
    10       -0.007975913312     -0.000165677961      0.005931053634
    11       -0.038506313124      0.028290047225      0.052507200851
    12        0.006633989130     -0.000542643943     -0.005867049304
    13        0.026659197954     -0.012171446496      0.011811943764
    14       -0.006961886379      0.018293374550      0.039382908642
    15       -0.026646801220     -0.015074338650     -0.010588146645
    16        0.006595398478      0.017629099286     -0.035904383314
    17       -0.001698654785     -0.027861048968      0.005618221634
    18       -0.017964745439     -0.001589420948      0.023626180620
    19        0.017598184784     -0.000301141413     -0.024881704877
    20       -0.000325439744     -0.025786231184     -0.004067156284
    21       -0.009329865932     -0.036795478928     -0.001665783374
    22        0.008400215124     -0.034761662286      0.000089005150
    23        0.021517610939      0.011045814042     -0.007017127700
    24       -0.019037256391      0.012995889264      0.007523877930
    25        0.057699021378      0.072272403008     -0.006492690034
    26       -0.056049943236      0.069373386967      0.006761463949

 Cartesian components of stress tensor (hartree/bohr^3)
  sigma(1 1)=  5.71975583E-05  sigma(3 2)=  3.49396810E-06
  sigma(2 2)=  9.32187618E-05  sigma(3 1)=  4.91858443E-05
  sigma(3 3)= -4.04299801E-05  sigma(2 1)= -1.49102337E-06

-Cartesian components of stress tensor (GPa)         [Pressure= -1.0786E+00 GPa]
- sigma(1 1)=  1.68280998E+00  sigma(3 2)=  1.02796073E-01
- sigma(2 2)=  2.74259020E+00  sigma(3 1)=  1.44709726E+00
- sigma(3 3)= -1.18949088E+00  sigma(2 1)= -4.38674146E-02

== END DATASET(S) ==============================================================

 -outvars: echo values of variables after computation  --------
-          iomode           1
            acell      1.0000000000E+00  1.0000000000E+00  1.0000000000E+00 Bohr
              amu      1.38905500E+02  9.59400000E+01  1.59994000E+01
        autoparal           1
           bandpp          26
     densfor_pred           6
           diemac      4.00000000E+00
          dilatmx      1.04000000E+00
             ecut      3.00000000E+01 Hartree
           ecutsm      5.00000000E-01 Hartree
           etotal1    -6.9435190217E+02
            fcart1    -1.5151336358E-05 -6.6217370720E-08 -1.9662057352E-05
                       5.5126921927E-07 -8.0319161886E-05 -6.7847004358E-06
                       4.1951897669E-05 -2.8711704819E-05  3.6820740599E-05
                      -3.6793188055E-05  1.5853319077E-05  2.4826112998E-05
                       4.6585433779E-05  4.4446857855E-06  3.9154844458E-05
                       9.4333938386E-05 -4.9679700671E-05 -1.0834594089E-04
                       3.1679548321E-05  4.1589161835E-05  8.0798079408E-07
                       5.5352671274E-05  4.5169743856E-05 -5.5792815505E-05
                      -1.3186641106E-04 -2.3844822220E-05 -1.0486342029E-04
                      -5.2607803060E-05 -2.8197232377E-05 -4.0939867213E-05
                       1.5589395596E-05 -8.5633690630E-06 -4.9521712801E-05
                       7.9064531030E-06 -9.1590847411E-06 -2.0023160622E-06
                       5.8345712200E-05  1.7502701339E-05 -5.1416866065E-05
                       2.8108823624E-05  4.6065242237E-06  6.9821618271E-05
                       4.4281682586E-05  7.4176576880E-06 -5.3119666679E-05
                       4.0950911952E-05 -3.9069555227E-05  1.9900238813E-05
                      -8.7642481279E-05  1.2557185896E-04  5.6511708579E-05
                       2.2208036496E-05 -6.1099278062E-05  4.9492274588E-05
                       1.6262015852E-05  2.9575878583E-05  1.1882505768E-05
                      -1.4845290089E-04 -2.3165773017E-05 -5.5572309796E-05
                       2.6751143254E-06 -8.2523207000E-05  4.6702240848E-05
                       1.2464354510E-05  9.7532961108E-05  1.1758295446E-04
                      -5.0906741059E-06  6.1433269724E-05 -6.9928819618E-07
                      -8.0561730562E-05 -4.1537420576E-05 -1.3690292823E-05
                       7.7241280161E-06  2.8018565161E-05  3.5016781792E-05
                       3.1195138458E-05 -2.7798003164E-06  5.3891252134E-05
-          fftalg         401
           ionmov           2
             iscf           7
              ixc     -116133
           jdtset        1
              kpt      2.50000000E-01  2.50000000E-01  2.50000000E-01
                      -2.50000000E-01  2.50000000E-01  2.50000000E-01
                       2.50000000E-01 -2.50000000E-01  2.50000000E-01
                      -2.50000000E-01 -2.50000000E-01  2.50000000E-01
         kptrlatt        2    0    0      0    2    0      0    0    2
          kptrlen      2.65094656E+01
P           mkmem           1
            natom          26
            nband         104
           ndtset           1
            ngfft          72      75      75
          ngfftdg          72      75      75
             nkpt           4
-           npfft          15
-           npkpt           4
            nstep         100
             nsym           1
            ntime         150
           ntypat           3
              occ      2.000000  2.000000  2.000000  2.000000  2.000000  2.000000
                       2.000000  2.000000  2.000000  2.000000  2.000000  2.000000
                       2.000000  2.000000  2.000000  2.000000  2.000000  2.000000
                       2.000000  2.000000  2.000000  2.000000  2.000000  2.000000
                       2.000000  2.000000  2.000000  2.000000  2.000000  2.000000
                       2.000000  2.000000  2.000000  2.000000  2.000000  2.000000
                       2.000000  2.000000  2.000000  2.000000  2.000000  2.000000
                       2.000000  2.000000  2.000000  2.000000  2.000000  2.000000
                       2.000000  2.000000  2.000000  2.000000  2.000000  2.000000
                       2.000000  2.000000  2.000000  2.000000  2.000000  2.000000
                       2.000000  2.000000  2.000000  2.000000  2.000000  2.000000
                       2.000000  2.000000  2.000000  2.000000  2.000000  2.000000
                       2.000000  2.000000  2.000000  2.000000  2.000000  2.000000
                       2.000000  2.000000  2.000000  2.000000  2.000000  2.000000
                       2.000000  2.000000  2.000000  2.000000  2.000000  2.000000
                       2.000000  2.000000  2.000000  2.000000  2.000000  2.000000
                       2.000000  2.000000  2.000000  2.000000  2.000000  2.000000
                       2.000000  2.000000
        paral_kgb           1
        pawecutdg      3.00000000E+01 Hartree
         pawmixdg           1
         pawxcdev           0
           prteig           0
            rprim      1.3729791650E+01  8.9808125004E-03 -2.8192424199E-01
                       8.9808125004E-03  1.3573727796E+01  1.5717417104E-02
                      -2.8192424199E-01  1.5717417104E-02  1.3251724915E+01
           shiftk      5.00000000E-01  5.00000000E-01  5.00000000E-01
          spgroup           1
           strten1     5.7197558344E-05  9.3218761801E-05 -4.0429980097E-05
                       3.4939680977E-06  4.9185844310E-05 -1.4910233664E-06
           tolmxf      1.00000000E-10
           tolvrs      1.00000000E-20
            typat      1  1  1  1  2  2  2  2  3  3  3  3  3  3  3  3  3  3  3  3
                       3  3  3  3  3  3
           useylm           1
         wfoptalg         114
              wtk        0.25000    0.25000    0.25000    0.25000
           xangst      6.3397634182E+00  6.2905627199E+00  5.7614107702E+00
                       2.3424450288E+00  4.5295634819E+00  7.8670556438E-01
                       6.9855239259E-01  2.6950945912E+00  4.6099081422E+00
                       4.8615548206E+00  9.5732038698E-01  2.5560834240E+00
                       1.4838584451E+00  1.2054167019E+00  1.3794448875E+00
                       4.8878758705E+00  2.4563807583E+00  6.0722333963E+00
                       5.7147333349E+00  4.8106256809E+00  1.9811598322E+00
                       2.1581815149E+00  6.0413276185E+00  4.3113292217E+00
                       2.8354056213E+00  2.2708477766E+00  1.9686371930E+00
                       5.7910315699E+00  1.3103408276E+00  4.7575952826E+00
                       4.3552100354E+00  5.8591970097E+00  1.3842040450E+00
                       1.2306622158E+00  4.8947015318E+00  5.6141536968E+00
                       7.4020780219E+00  1.3261242812E+00  2.3643655393E+00
                       3.2927557791E+00  2.4633635718E+00  5.3249633271E+00
                      -2.0295436944E-01  4.9337952709E+00  9.9855629948E-01
                       3.7384968512E+00  6.0282121304E+00  5.0890464372E+00
                       1.5144743453E+00  6.8546077604E+00  5.0141284579E-01
                       1.0091317285E+00  1.6520376747E-01  4.9021383777E+00
                       6.0250695539E+00  3.7629434341E+00  5.4690733555E+00
                       5.7203739290E+00  3.2780042386E+00  2.8739785990E+00
                       9.0463744237E-01  2.3634877469E+00  7.0648412715E+00
                       6.1240867962E+00  5.9690959009E+00  3.3085195350E+00
                       1.8001864042E+00  4.6050894454E+00  3.1683961567E+00
                       5.4041452940E+00  1.0038838347E+00  1.9181961904E-01
                       4.5058009918E+00  3.5568393118E+00  7.5354378213E+00
                       2.5637335326E+00  7.1521398271E+00  2.8659063396E+00
            xcart      1.1980416608E+01  1.1887440762E+01  1.0887488495E+01
                       4.4265795858E+00  8.5596344824E+00  1.4866580639E+00
                       1.3200727115E+00  5.0929906796E+00  8.7114638864E+00
                       9.1870071910E+00  1.8090733528E+00  4.8302976442E+00
                       2.8040860813E+00  2.2779074426E+00  2.6067730528E+00
                       9.2367467668E+00  4.6418869113E+00  1.1474858134E+01
                       1.0799280925E+01  9.0907650648E+00  3.7438495084E+00
                       4.0783720081E+00  1.1416454678E+01  8.1472314977E+00
                       5.3581400998E+00  4.2912803873E+00  3.7201851498E+00
                       1.0943463694E+01  2.4761853049E+00  8.9905521352E+00
                       8.2301542181E+00  1.1072277707E+01  2.6157665571E+00
                       2.3256145500E+00  9.2496453973E+00  1.0609212955E+01
                       1.3987900276E+01  2.5060117096E+00  4.4680033473E+00
                       6.2224066450E+00  4.6550825164E+00  1.0062722356E+01
                      -3.8352817572E-01  9.3235218577E+00  1.8869979343E+00
                       7.0647351975E+00  1.1391669997E+01  9.6169040439E+00
                       2.8619417478E+00  1.2953331416E+01  9.4753295805E-01
                       1.9069825988E+00  3.1218987664E-01  9.2636989993E+00
                       1.1385731388E+01  7.1109325440E+00  1.0335050843E+01
                       1.0809940103E+01  6.1945302733E+00  5.4310324640E+00
                       1.7095170156E+00  4.4663445600E+00  1.3350615175E+01
                       1.1572846859E+01  1.1279956514E+01  6.2521958264E+00
                       3.4018592921E+00  8.7023578693E+00  5.9874010167E+00
                       1.0212354588E+01  1.8970655169E+00  3.6248654691E-01
                       8.5147298838E+00  6.7214521979E+00  1.4239913774E+01
                       4.8447542544E+00  1.3515585537E+01  5.4157781044E+00
             xred      8.8925114660E-01  8.7420791205E-01  8.3947182206E-01
                       3.2442462172E-01  6.3025139501E-01  1.1834046627E-01
                       1.0943895548E-01  3.7437363713E-01  6.5926762368E-01
                       6.7681986246E-01  1.3239119639E-01  3.7874531470E-01
                       2.0825029794E-01  1.6744691674E-01  2.0094380499E-01
                       6.9060328998E-01  3.4049969830E-01  8.8020270885E-01
                       7.9225169884E-01  6.6886247024E-01  2.9857937008E-01
                       3.0923478302E-01  8.4014699403E-01  6.2038771491E-01
                       3.9597985459E-01  3.1554966483E-01  2.8878216752E-01
                       8.1122223096E-01  1.8108279757E-01  6.9548751222E-01
                       6.0320134240E-01  8.1507244430E-01  2.0925674375E-01
                       1.8544308578E-01  6.8038401514E-01  8.0372932921E-01
                       1.0260461150E+00  1.8352791545E-01  3.5877488147E-01
                       4.6877000488E-01  3.4174747153E-01  7.6891941705E-01
                      -2.5487138453E-02  6.8673352770E-01  1.4103966290E-01
                       5.2911927193E-01  8.3804174225E-01  7.3597239638E-01
                       2.0935994535E-01  9.5406916439E-01  7.4825059025E-02
                       1.5330000985E-01  2.2084936246E-02  7.0229128132E-01
                       8.4530113922E-01  5.2239224150E-01  7.9726610208E-01
                       7.9578878145E-01  4.5534169880E-01  4.2622585767E-01
                       1.4503947027E-01  3.2777767162E-01  1.0101593253E+00
                       8.5239759521E-01  8.2988375703E-01  4.8895247861E-01
                       2.5672732014E-01  6.4041927335E-01  4.5652267714E-01
                       7.4460237429E-01  1.3921761896E-01  4.3029859821E-02
                       6.4217522240E-01  4.9349670464E-01  1.0876472410E+00
                       3.6073871870E-01  9.9499713480E-01  4.1517918192E-01
            znucl       57.00000   42.00000    8.00000

- Timing analysis has been suppressed with timopt=0

 Suggested references for the acknowledgment of ABINIT usage.

 Calculation completed.
.Delivered   1 WARNINGs and   0 COMMENTs to log file.