.Version 9.3.2 of ABINIT

 ABINIT is a project of the Universite Catholique de Louvain,
 Corning Inc. and other collaborators, see ~abinit/doc/developers/contributors.txt .
 acknowledgments of the ABINIT effort.

.Starting date : Tue 23 Aug 2022.
- ( at 12h23 )

- input  file    -> abi.in
- output file    -> abi.out
- root for input  files -> abi-i
- root for output files -> abi-o

- inpspheads : Reading pseudopotential header in XML form from
-   ~/ABINIT_PAW_PBE/paw_pbe_standard/La.xml
- inpspheads : Reading pseudopotential header in XML form from
-   ~/ABINIT_PAW_PBE/paw_pbe_standard/Mo.xml
- inpspheads : Reading pseudopotential header in XML form from
-   ~/ABINIT_PAW_PBE/paw_pbe_standard/O.xml

 DATASET    1 : space group P1 (#  1); Bravais aP (primitive triclinic)
     intxc =       0    ionmov =       0      iscf =       7    lmnmax =      32
     lnmax =       8     mgfft =     144  mpssoang =       4    mqgrid =    6715
     natom =     104  nloc_mem =       2    nspden =       1   nspinor =       1
    nsppol =       1      nsym =       1    n1xccc =       1    ntypat =       3
    occopt =       1   xclevel =       2
-    mband =         420        mffmem =           1         mkmem =           1
       mpw =        1299          nfft =      248832          nkpt =           1
Pmy_natom=        11
 PAW method is used; the additional fine FFT grid is defined by:
   mgfftf=       144    nfftf =    248832
  Rough estimation (10% accuracy) of disk space for files :

------------- Echo of variables that govern the present computation ------------
-
- outvars: echo of selected default values
-   iomode0 =  0 , fftalg0 =512 , wfoptalg0 = 10
-
- outvars: echo of global parameters not present in the input file
-  max_nthreads =    1
-
 -outvars: echo values of preprocessed input variables --------
-          iomode           1
            acell      1.0000000000E+00  1.0000000000E+00  1.0000000000E+00 Bohr
              amu      1.38905500E+02  9.59400000E+01  1.59994000E+01
        autoparal           1
           bandpp          14
     densfor_pred           6
           diemac      4.00000000E+00
             ecut      3.00000000E+01 Hartree
           ecutsm      5.00000000E-01 Hartree
-          fftalg         401
           irdden           1
           irdwfk           1
             iscf           7
           istwfk        1
              ixc     -116133
           jdtset        1
              kpt      5.00000000E-01  5.00000000E-01  5.00000000E-01
         kptrlatt        1    0    0      0    1    0      0    0    1
          kptrlen      1.35683545E+01
P           mkmem           1
            natom         104
            nband         420
           ndtset           1
            ngfft         144     144      72
          ngfftdg         144     144      72
             nkpt           1
-          npband          10
-           npfft           6
            nstep         100
             nsym           1
           ntypat           3
              occ      2.000000  2.000000  2.000000  2.000000  2.000000  2.000000
                       2.000000  2.000000  2.000000  2.000000  2.000000  2.000000
                       2.000000  2.000000  2.000000  2.000000  2.000000  2.000000
                       2.000000  2.000000  2.000000  2.000000  2.000000  2.000000
                       2.000000  2.000000  2.000000  2.000000  2.000000  2.000000
                       2.000000  2.000000  2.000000  2.000000  2.000000  2.000000
                       2.000000  2.000000  2.000000  2.000000  2.000000  2.000000
                       2.000000  2.000000  2.000000  2.000000  2.000000  2.000000
                       2.000000  2.000000  2.000000  2.000000  2.000000  2.000000
                       2.000000  2.000000  2.000000  2.000000  2.000000  2.000000
                       2.000000  2.000000  2.000000  2.000000  2.000000  2.000000
                       2.000000  2.000000  2.000000  2.000000  2.000000  2.000000
                       2.000000  2.000000  2.000000  2.000000  2.000000  2.000000
                       2.000000  2.000000  2.000000  2.000000  2.000000  2.000000
                       2.000000  2.000000  2.000000  2.000000  2.000000  2.000000
                       2.000000  2.000000  2.000000  2.000000  2.000000  2.000000
                       2.000000  2.000000  2.000000  2.000000  2.000000  2.000000
                       2.000000  2.000000  2.000000  2.000000  2.000000  2.000000
                       2.000000  2.000000  2.000000  2.000000  2.000000  2.000000
                       2.000000  2.000000  2.000000  2.000000  2.000000  2.000000
                       2.000000  2.000000  2.000000  2.000000  2.000000  2.000000
                       2.000000  2.000000  2.000000  2.000000  2.000000  2.000000
                       2.000000  2.000000  2.000000  2.000000  2.000000  2.000000
                       2.000000  2.000000  2.000000  2.000000  2.000000  2.000000
                       2.000000  2.000000  2.000000  2.000000  2.000000  2.000000
                       2.000000  2.000000  2.000000  2.000000  2.000000  2.000000
                       2.000000  2.000000  2.000000  2.000000  2.000000  2.000000
                       2.000000  2.000000  2.000000  2.000000  2.000000  2.000000
                       2.000000  2.000000  2.000000  2.000000  2.000000  2.000000
                       2.000000  2.000000  2.000000  2.000000  2.000000  2.000000
                       2.000000  2.000000  2.000000  2.000000  2.000000  2.000000
                       2.000000  2.000000  2.000000  2.000000  2.000000  2.000000
                       2.000000  2.000000  2.000000  2.000000  2.000000  2.000000
                       2.000000  2.000000  2.000000  2.000000  2.000000  2.000000
                       2.000000  2.000000  2.000000  2.000000  2.000000  2.000000
                       2.000000  2.000000  2.000000  2.000000  2.000000  2.000000
                       2.000000  2.000000  2.000000  2.000000  2.000000  2.000000
                       2.000000  2.000000  2.000000  2.000000  2.000000  2.000000
                       2.000000  2.000000  2.000000  2.000000  2.000000  2.000000
                       2.000000  2.000000  2.000000  2.000000  2.000000  2.000000
                       2.000000  2.000000  2.000000  2.000000  2.000000  2.000000
                       2.000000  2.000000  2.000000  2.000000  2.000000  2.000000
                       2.000000  2.000000  2.000000  2.000000  2.000000  2.000000
                       2.000000  2.000000  2.000000  2.000000  2.000000  2.000000
                       2.000000  2.000000  2.000000  2.000000  2.000000  2.000000
                       2.000000  2.000000  2.000000  2.000000  2.000000  2.000000
                       2.000000  2.000000  2.000000  2.000000  2.000000  2.000000
                       2.000000  2.000000  2.000000  2.000000  2.000000  2.000000
                       2.000000  2.000000  2.000000  2.000000  2.000000  2.000000
                       2.000000  2.000000  2.000000  2.000000  2.000000  2.000000
                       2.000000  2.000000  2.000000  2.000000  2.000000  2.000000
                       2.000000  2.000000  2.000000  2.000000  2.000000  2.000000
                       2.000000  2.000000  2.000000  2.000000  2.000000  2.000000
                       2.000000  2.000000  2.000000  2.000000  2.000000  2.000000
                       2.000000  2.000000  2.000000  2.000000  2.000000  2.000000
                       2.000000  2.000000  2.000000  2.000000  2.000000  2.000000
                       2.000000  2.000000  2.000000  2.000000  2.000000  2.000000
                       2.000000  2.000000  2.000000  2.000000  2.000000  2.000000
                       2.000000  2.000000  2.000000  2.000000  2.000000  2.000000
                       2.000000  2.000000  2.000000  2.000000  2.000000  2.000000
                       2.000000  2.000000  2.000000  2.000000  2.000000  2.000000
                       2.000000  2.000000  2.000000  2.000000  2.000000  2.000000
                       2.000000  2.000000  2.000000  2.000000  2.000000  2.000000
                       2.000000  2.000000  2.000000  2.000000  2.000000  2.000000
                       2.000000  2.000000  2.000000  2.000000  2.000000  2.000000
                       2.000000  2.000000  2.000000  2.000000  2.000000  2.000000
                       2.000000  2.000000  2.000000  2.000000  2.000000  2.000000
                       2.000000  2.000000  2.000000  2.000000  2.000000  2.000000
                       2.000000  2.000000  2.000000  2.000000  2.000000  2.000000
                       2.000000  2.000000  0.000000  0.000000  0.000000  0.000000
        paral_kgb           1
        pawecutdg      3.00000000E+01 Hartree
         pawmixdg           1
         pawxcdev           0
           prteig           0
            rprim      2.6799372194E+01 -6.6226992639E-01  6.6035734202E-02
                      -6.5861402325E-01  2.7255655769E+01 -7.4161612080E-02
                       2.7111043756E-02 -3.6915211591E-02  1.3568277154E+01
           shiftk      5.00000000E-01  5.00000000E-01  5.00000000E-01
          spgroup           1
           tolvrs      1.00000000E-20
            typat      1  1  1  1  1  1  1  1  1  1  1  1  1  1  1  1  2  2  2  2
                       2  2  2  2  2  2  2  2  2  2  2  2  3  3  3  3  3  3  3  3
                       3  3  3  3  3  3  3  3  3  3  3  3  3  3  3  3  3  3  3  3
                       3  3  3  3  3  3  3  3  3  3  3  3  3  3  3  3  3  3  3  3
                       3  3  3  3  3  3  3  3  3  3  3  3  3  3  3  3  3  3  3  3
                       3  3  3  3
           useylm           1
         wfoptalg         114
           xangst      5.9465674855E+00  6.1404455747E+00  5.9573664857E+00
                       1.9802715744E+00  4.3052549277E+00  8.0687188516E-01
                       1.4314532511E+00  2.3914197306E+00  4.2687305394E+00
                       4.5818314198E+00  7.4573726517E-01  2.3831374381E+00
                       1.2799030734E+01  5.9773768788E+00  6.3223302159E+00
                       9.5808408893E+00  4.6201774275E+00  1.2363769878E+00
                       7.9886313901E+00  2.6797023454E+00  5.1087835203E+00
                       1.1754639438E+01  7.9763853416E-01  2.6992154711E+00
                       5.8239100850E+00  1.3380534833E+01  6.0214533714E+00
                       2.3655531111E+00  1.1864738705E+01  9.9380819763E-01
                       1.1488542276E+00  9.6259207703E+00  4.3983688212E+00
                       4.4173394675E+00  8.0856750591E+00  2.4145889712E+00
                       1.2546751332E+01  1.3219103723E+01  6.1751974697E+00
                       9.0401283407E+00  1.1533874967E+01  1.4173756832E+00
                       7.6569057694E+00  9.6494146269E+00  4.6882560465E+00
                       1.1283389237E+01  7.9734377226E+00  2.5011058731E+00
                       1.2912938200E+00  8.8759619974E-01  1.1088069574E+00
                       4.5741112326E+00  2.3431350453E+00  5.6366764072E+00
[...]
                       4.4173394675E+00  8.0856750591E+00  2.4145889712E+00
                       1.2546751332E+01  1.3219103723E+01  6.1751974697E+00
                       9.0401283407E+00  1.1533874967E+01  1.4173756832E+00
                       7.6569057694E+00  9.6494146269E+00  4.6882560465E+00
                       1.1283389237E+01  7.9734377226E+00  2.5011058731E+00
                       1.2912938200E+00  8.8759619974E-01  1.1088069574E+00
                       4.5741112326E+00  2.3431350453E+00  5.6366764072E+00
                       5.5727065260E+00  4.5717196330E+00  2.2192218170E+00
                       2.1176016391E+00  5.7290848595E+00  4.6752772193E+00
                       8.4851349186E+00  1.1672439565E+00  1.3233552326E+00
                       1.1992614918E+01  2.1166612037E+00  5.9486601187E+00
                       1.2930334592E+01  4.4851321245E+00  2.3429374993E+00
                       9.3584987114E+00  5.8864045564E+00  5.0833367147E+00
                       9.9635405195E-01  7.8632590090E+00  1.2658108961E+00
                       4.3204398277E+00  9.4587756690E+00  5.8201160017E+00
                       5.7076615107E+00  1.2037739496E+01  2.1278540553E+00
                       1.6439026395E+00  1.2899083921E+01  4.9616988018E+00
                       7.9156055026E+00  8.2409538338E+00  1.4197791946E+00
                       1.1698812743E+01  9.4255009329E+00  5.9426756462E+00
                       1.2620560879E+01  1.1616322371E+01  2.3517532546E+00
                       9.2524147275E+00  1.3227038657E+01  5.1270290920E+00
                       8.9080908853E-01  4.9659722015E+00  5.7476635597E+00
                       2.4368856787E+00  2.1654053274E+00  1.9999081600E+00
                       4.5281305536E+00  4.9371429320E+00  8.2697949256E-01
                       6.0396552401E+00  1.2291695964E+00  5.0089364344E+00
                       8.1519126509E+00  4.8840811656E+00  6.2143313021E+00
                       8.7343492692E+00  1.9248388370E+00  2.8952575319E+00
                       1.1751925338E+01  5.7568582552E+00  1.5344038028E+00
                       1.3198707522E+01  1.7341843977E+00  4.6690662183E+00
                       5.9062771232E-01  1.1701041086E+01  5.7386737312E+00
                       1.9570476045E+00  9.2903591822E+00  1.8451337362E+00
                       4.5543140749E+00  1.3078458607E+01  9.6500476093E-01
                       5.6195298810E+00  8.3371435597E+00  4.9698584015E+00
                       7.8488280162E+00  1.2072118698E+01  5.3614851340E+00
                       9.0863158329E+00  9.2734269097E+00  2.5908600379E+00
                       1.2048438064E+01  1.3073477484E+01  1.4852406184E+00
                       1.2827837882E+01  8.9760633088E+00  4.6251595820E+00
                       1.1067044944E+00  2.0549638440E+00  6.9312893735E+00
                       1.4122795255E+01  6.4969031676E-01  2.2853748010E+00
                       2.2357741629E+00  1.4110459468E+01  1.7981380856E+00
                       5.4860657355E+00  5.9221393496E+00  3.3869656342E+00
                       5.0656833896E+00  3.0765479086E+00  2.9974009926E+00
                       7.2102547498E+00  4.2451193597E+00  1.6933834945E+00
                       4.4536088543E+00  1.6851491278E+00  6.3650257066E-02
                       5.8249837069E+00  3.7146936935E+00  5.5983174374E+00
                       3.5120388439E+00  1.2800493126E+00  4.4987777372E+00
                       3.5335901915E+00  6.2939528454E+00  5.5412905574E+00
                       2.4890514791E+00  4.6714580774E+00  3.2993598315E+00
                       1.3609701508E+00  7.1851898957E+00  4.0274501563E+00
                       7.8871202486E-03  5.8387287266E+00  1.0710023071E+00
[...]
                       1.0113482396E+01  9.7709605101E+00  5.2890135563E+00
                       8.5500967160E+00  2.2604147067E-01  5.5729935880E+00
                       1.0197328236E+01  1.2509258500E+01  6.4980922297E+00
                       9.5857896437E+00  1.2694479311E+01  3.4339752502E+00
                       3.8471998401E-02  1.1395595647E+01  1.8730358404E+00
                       1.2661087728E+01  1.2032792929E+01  4.0481611178E+00
                       1.1372717363E+01  1.0378688037E+01  2.1226295346E+00
                       8.6560073725E-01 -5.8475874212E-01  8.2752074594E-02
                       3.1300577631E+00  3.5299124499E+00  5.6836801928E+00
                       1.4336837419E+01  3.3392624904E+00  2.3924651832E+00
                       1.0774493919E+01  6.9570023861E+00  4.5519530989E+00
                       2.6927553480E+00  1.0220739096E+01  6.3097769011E+00
                       7.1600359171E+00  1.1260869633E+01  2.9312036377E+00
                       6.7054040354E+00  7.0047037938E+00  8.1970102321E-01
                       1.0921009561E+01  1.4394777997E+01  4.8281142277E+00
            xcart      1.1237383978E+01  1.1603760470E+01  1.1257791131E+01
                       3.7421709444E+00  8.1357527456E+00  1.5247668873E+00
                       2.7050546166E+00  4.5191283596E+00  8.0667316546E+00
                       8.6584065705E+00  1.4092391983E+00  4.5034770950E+00
                       2.4186662853E+01  1.1295605294E+01  1.1947472630E+01
                       1.8105165404E+01  8.7308700233E+00  2.3364139039E+00
                       1.5096325504E+01  5.0639035505E+00  9.6542017255E+00
                       2.2213049329E+01  1.5073183826E+00  5.1007780141E+00
                       1.1005595083E+01  2.5285546346E+01  1.1378897794E+01
                       4.4702475327E+00  2.2421106791E+01  1.8780253221E+00
                       2.1710198567E+00  1.8190354033E+01  8.3117125035E+00
                       8.3475618295E+00  1.5279711461E+01  4.5629118791E+00
                       2.3709923876E+01  2.4980485759E+01  1.1669432034E+01
                       1.7083366770E+01  2.1795864938E+01  2.6784518686E+00
                       1.4469454930E+01  1.8234750987E+01  8.8595199687E+00
                       2.1322515508E+01  1.5067613633E+01  4.7264051296E+00
                       2.4401916769E+00  1.6773137341E+00  2.0953414837E+00
                       8.6438175311E+00  4.4278835279E+00  1.0651774709E+01
                       1.0530889153E+01  8.6392980626E+00  4.1937214622E+00
                       4.0016871565E+00  1.0826401377E+01  8.8349935397E+00
                       1.6034581197E+01  2.2057714080E+00  2.5007789660E+00
                       2.2662757812E+01  3.9999099911E+00  1.1241338482E+01
                       2.4434791186E+01  8.4756713850E+00  4.4275102201E+00
                       1.7684999580E+01  1.1123692519E+01  9.6061142319E+00
                       1.8828362896E+00  1.4859406039E+01  2.3920359296E+00
                       8.1644480480E+00  1.7874495567E+01  1.0998425305E+01
                       1.0785917115E+01  2.2748030906E+01  4.0210614153E+00
                       3.1065257777E+00  2.4375735976E+01  9.3762518892E+00
                       1.4958326576E+01  1.5573145820E+01  2.6829938469E+00
                       2.2107552164E+01  1.7811615428E+01  1.1230029468E+01
                       2.3849403704E+01  2.1951667952E+01  4.4441695833E+00
                       1.7484529903E+01  2.4995480612E+01  9.6886808592E+00
                       1.6833852140E+00  9.3843274443E+00  1.0861510032E+01
                       4.6050465498E+00  4.0920230355E+00  3.7792787132E+00
                       8.5569266403E+00  9.3298480204E+00  1.5627647584E+00
                       1.1413294341E+01  2.3227939081E+00  9.4655180781E+00
                       1.5404882369E+01  9.2295758138E+00  1.1743384260E+01
                       1.6505528068E+01  3.6374182519E+00  5.4712438195E+00
                       2.2207920423E+01  1.0878885488E+01  2.8996029645E+00
                       2.4941942524E+01  3.2771335755E+00  8.8232564488E+00
                       1.1161246228E+00  2.2111763123E+01  1.0844521718E+01
                       3.6982840016E+00  1.7556234530E+01  3.4867974400E+00
                       8.6064063247E+00  2.4714705007E+01  1.8235947151E+00
                       1.0619372471E+01  1.5754918058E+01  9.3916712980E+00
                       1.4832135415E+01  2.2812998184E+01  1.0131738569E+01
                       1.7170648481E+01  1.7524237173E+01  4.8960159203E+00
                       2.2768248270E+01  2.4705292050E+01  2.8066980103E+00
                       2.4241100475E+01  1.6962301405E+01  8.7402849308E+00
                       2.0913684045E+00  3.8833188781E+00  1.3098238664E+01
                       2.6688215263E+01  1.2277367699E+00  4.3187324848E+00
                       4.2250008628E+00  2.6664904003E+01  3.3979885308E+00
                       1.0367161787E+01  1.1191221491E+01  6.4004374702E+00
                       9.5727542823E+00  5.8138329819E+00  5.6642669865E+00
                       1.3625406826E+01  8.0221129912E+00  3.2000310426E+00
                       8.4161010376E+00  3.1844703446E+00  1.2028155414E-01
                       1.1007623935E+01  7.0197537482E+00  1.0579286762E+01
                       6.6367915830E+00  2.4189426373E+00  8.5014578560E+00
                       6.6775177277E+00  1.1893847171E+01  1.0471521576E+01
                       4.7036256262E+00  8.8277764075E+00  6.2348864953E+00
                       2.5718608601E+00  1.3578041116E+01  7.6107778092E+00
                       1.4904497247E-02  1.1033598258E+01  2.0239010480E+00
[...]
                       1.9111711979E+01  1.8464439419E+01  9.9947871345E+00
                       1.6157341203E+01  4.2715647423E-01  1.0531431622E+01
                       1.9270157652E+01  2.3639072691E+01  1.2279614700E+01
                       1.8114517194E+01  2.3989089297E+01  6.4892727699E+00
                       7.2701540762E-02  2.1534554894E+01  3.5395247754E+00
                       2.3925988351E+01  2.2738683250E+01  7.6499158545E+00
                       2.1491321203E+01  1.9612878009E+01  4.0111885020E+00
                       1.6357483338E+00 -1.1050338764E+00  1.5637875791E-01
                       5.9149519523E+00  6.6705678033E+00  1.0740598991E+01
                       2.7092696333E+01  6.3102915928E+00  4.5211039787E+00
                       2.0360842728E+01  1.3146829216E+01  8.6019447266E+00
                       5.0885701506E+00  1.9314397767E+01  1.1923750303E+01
                       1.3530506985E+01  2.1279959624E+01  5.5391721150E+00
                       1.2671377237E+01  1.3236971812E+01  1.5490104447E+00
                       2.0637717166E+01  2.7202188157E+01  9.1238136286E+00
             xred      4.2922227840E-01  4.3729131919E-01  8.3001527935E-01
                       1.4694920571E-01  3.0222188990E-01  1.1331403639E-01
                       1.0449235736E-01  1.6914995763E-01  5.9494479418E-01
                       3.2422322411E-01  6.0030438248E-02  3.3066237368E-01
                       9.1237887549E-01  4.3779083458E-01  8.7849696464E-01
                       6.8369535532E-01  3.3717635902E-01  1.7071225000E-01
                       5.6751932178E-01  2.0054403624E-01  7.0986151966E-01
                       8.3035525380E-01  7.5983551692E-02  3.7230813468E-01
                       4.3290054857E-01  9.3937617602E-01  8.4166739893E-01
                       1.8699343962E-01  8.2735818205E-01  1.4202505357E-01
                       9.6867278553E-02  6.7058514574E-01  6.1577806692E-01
                       3.2512445256E-01  5.6896456436E-01  3.3782014655E-01
                       9.0694308896E-01  9.3972798889E-01  8.6077495262E-01
                       6.5730491076E-01  8.1592283825E-01  1.9866607814E-01
                       5.5605171218E-01  6.8342327043E-01  6.5398755911E-01
                       8.0936427387E-01  5.7296220310E-01  3.4753490902E-01
                       9.2470683971E-02  6.3995942585E-02  1.5432918511E-01
                       3.2595780203E-01  1.7144008310E-01  7.8440055425E-01
                       4.0067969951E-01  3.2712696876E-01  3.0892076422E-01
                       1.5853829862E-01  4.0195277644E-01  6.5257613125E-01
                       6.0048878278E-01  9.5766265852E-02  1.8191163116E-01
                       8.4895125176E-01  1.6850119828E-01  8.2529075404E-01
                       9.1964210729E-01  3.3375350848E-01  3.2366177569E-01
                       6.6964159109E-01  4.2535307070E-01  7.0704914991E-01
                       8.3529948475E-02  5.4745807640E-01  1.7888198436E-01
                       3.2016380679E-01  6.6468884809E-01  8.1267336482E-01
                       4.2294045157E-01  8.4529855069E-01  2.9891937564E-01
                       1.3729859178E-01  8.9861464086E-01  6.9528561950E-01
                       5.7234941100E-01  5.8554858102E-01  1.9815511797E-01
                       8.4068092707E-01  6.7504931775E-01  8.2726621104E-01
                       9.0994005589E-01  8.2795251392E-01  3.2763800934E-01
                       6.7466338651E-01  9.3443788048E-01  7.1589253939E-01
                       7.0533386691E-02  3.4710769537E-01  8.0206162145E-01
                       1.7535600825E-01  1.5477294288E-01  2.7853036304E-01
                       3.2779101616E-01  3.5042993874E-01  1.1549788300E-01
                       4.2754788870E-01  9.6553960812E-02  6.9606812492E-01
                       5.8264663110E-01  3.5395817298E-01  8.6460194893E-01
                       6.1914947918E-01  1.4904307618E-01  4.0103920654E-01
                       8.3877592017E-01  4.1981028123E-01  2.1191692618E-01
                       9.3357116315E-01  1.4379681170E-01  6.4652803710E-01
                       6.0835344970E-02  8.1383881204E-01  8.0340782298E-01
                       1.5366652199E-01  6.4821749695E-01  2.5977674048E-01
                       3.4349707311E-01  9.1530643853E-01  1.3773246327E-01
                       4.1002679175E-01  5.8894431649E-01  6.9340210486E-01
                       5.7363091750E-01  8.5195275236E-01  7.4858734860E-01
                       6.5655063504E-01  6.5940026344E-01  3.6125163483E-01
                       8.7217516706E-01  9.2790187687E-01  2.0768428813E-01
                       9.1975427563E-01  6.4556038767E-01  6.4322271591E-01
                       8.0642760158E-02  1.4574506969E-01  9.6576167340E-01
                       9.9724775554E-01  6.9701820936E-02  3.1382375583E-01
                       1.8155504969E-01  9.8308231242E-01  2.5492598211E-01
                       3.9670932321E-01  4.2088062606E-01  4.7209042032E-01
                       3.6225130535E-01  2.2267421470E-01  4.1691802653E-01
                       5.1573399154E-01  3.0717821727E-01  2.3501546773E-01
                       3.1709385669E-01  1.2455277208E-01  8.0024207674E-03
                       4.1655786254E-01  2.6872917689E-01  7.7914891674E-01
                       2.4936496145E-01  9.5656989124E-02  6.2587790904E-01
                       2.5928996847E-01  4.4372808483E-01  7.7292840087E-01
                       1.8313121180E-01  3.2896128079E-01  4.6042614839E-01
                       1.0772355803E-01  5.0155357820E-01  5.6314152050E-01
                       1.0363000078E-02  4.0527543323E-01  1.5132891051E-01
[...]
                       7.2950389703E-01  6.9617734732E-01  7.3688378636E-01
                       6.0288849225E-01  3.1368985476E-02  7.7341770758E-01
                       7.3992252683E-01  8.8651531329E-01  9.0626824898E-01
                       6.9750812936E-01  8.9774905255E-01  4.7978020730E-01
                       2.1883687429E-02  7.9098568155E-01  2.6508453524E-01
                       9.1327809185E-01  8.5722912231E-01  5.6404953054E-01
                       8.1981846037E-01  7.3991007714E-01  2.9568412163E-01
                       6.0065522131E-02 -3.9068863777E-02  1.1019444506E-02
                       2.2608729994E-01  2.5130676420E-01  7.9186961937E-01
                       1.0169197446E+00  2.5667834490E-01  3.2966503897E-01
                       7.7144630804E-01  5.0195456722E-01  6.3296374078E-01
                       2.0655250448E-01  7.1485124109E-01  8.8169815823E-01
                       5.2398082607E-01  7.9404117265E-01  4.1003422666E-01
                       4.8493663480E-01  4.9759794977E-01  1.1452374878E-01
                       7.9442448300E-01  1.0182546229E+00  6.7413633473E-01
            znucl       57.00000   42.00000    8.00000

- Timing analysis has been suppressed with timopt=0

 Suggested references for the acknowledgment of ABINIT usage.

 Calculation completed.
.Delivered   0 WARNINGs and   0 COMMENTs to log file.