.Version 9.3.2 of ABINIT

 ABINIT is a project of the Universite Catholique de Louvain,
 Corning Inc. and other collaborators, see ~abinit/doc/developers/contributors.txt .
 acknowledgments of the ABINIT effort.

.Starting date : Sun  2 Oct 2022.
- ( at 11h02 )

- input  file    -> abi.in
- output file    -> abi.out
- root for input  files -> DFPT/abi-i
- root for output files -> abi-o

- inpspheads : Reading pseudopotential header in XML form from
-   ~/ABINIT_PAW_PBE/paw_pbe_standard/La.xml
- inpspheads : Reading pseudopotential header in XML form from
-   ~/ABINIT_PAW_PBE/paw_pbe_standard/Mo.xml
- inpspheads : Reading pseudopotential header in XML form from
-   ~/ABINIT_PAW_PBE/paw_pbe_standard/O.xml

 DATASET    1 : space group P1 (#  1); Bravais aP (primitive triclinic)
     intxc =       0    ionmov =       2      iscf =       7    lmnmax =      32
     lnmax =       8     mgfft =     144  mpssoang =       4    mqgrid =    7021
     natom =     104  nloc_mem =       2    nspden =       1   nspinor =       1
    nsppol =       1      nsym =       1    n1xccc =       1    ntypat =       3
    occopt =       1   xclevel =       2
-    mband =         420        mffmem =           1         mkmem =           1
       mpw =        1465          nfft =      248832          nkpt =           1
Pmy_natom=        11
 PAW method is used; the additional fine FFT grid is defined by:
   mgfftf=       144    nfftf =    248832
  Rough estimation (10% accuracy) of disk space for files :

------------- Echo of variables that govern the present computation ------------
-
- outvars: echo of selected default values
-   iomode0 =  0 , fftalg0 =512 , wfoptalg0 = 10
-
- outvars: echo of global parameters not present in the input file
-  max_nthreads =    1
-
 -outvars: echo values of preprocessed input variables --------
-          iomode           1
            acell      1.0000000000E+00  1.0000000000E+00  1.0000000000E+00 Bohr
              amu      1.38905500E+02  9.59400000E+01  1.59994000E+01
        autoparal           1
           bandpp          14
     densfor_pred           6
           diemac      4.00000000E+00
          dilatmx      1.04000000E+00
             ecut      3.00000000E+01 Hartree
           ecutsm      5.00000000E-01 Hartree
-          fftalg         401
           ionmov           2
             iscf           7
              ixc     -116133
           jdtset        1
              kpt      5.00000000E-01  5.00000000E-01  2.50000000E-01
         kptrlatt        1    0    0      0    1    0      0    0    2
          kptrlen      2.68033668E+01
P           mkmem           1
            natom         104
            nband         420
           ndtset           1
            ngfft         144     144      72
          ngfftdg         144     144      72
             nkpt           1
-          npband          10
-           npfft           6
            nstep         100
             nsym           1
            ntime         250
           ntypat           3
              occ      2.000000  2.000000  2.000000  2.000000  2.000000  2.000000
                       2.000000  2.000000  2.000000  2.000000  2.000000  2.000000
                       2.000000  2.000000  2.000000  2.000000  2.000000  2.000000
                       2.000000  2.000000  2.000000  2.000000  2.000000  2.000000
                       2.000000  2.000000  2.000000  2.000000  2.000000  2.000000
                       2.000000  2.000000  2.000000  2.000000  2.000000  2.000000
                       2.000000  2.000000  2.000000  2.000000  2.000000  2.000000
                       2.000000  2.000000  2.000000  2.000000  2.000000  2.000000
                       2.000000  2.000000  2.000000  2.000000  2.000000  2.000000
                       2.000000  2.000000  2.000000  2.000000  2.000000  2.000000
                       2.000000  2.000000  2.000000  2.000000  2.000000  2.000000
                       2.000000  2.000000  2.000000  2.000000  2.000000  2.000000
                       2.000000  2.000000  2.000000  2.000000  2.000000  2.000000
                       2.000000  2.000000  2.000000  2.000000  2.000000  2.000000
                       2.000000  2.000000  2.000000  2.000000  2.000000  2.000000
                       2.000000  2.000000  2.000000  2.000000  2.000000  2.000000
                       2.000000  2.000000  2.000000  2.000000  2.000000  2.000000
                       2.000000  2.000000  2.000000  2.000000  2.000000  2.000000
                       2.000000  2.000000  2.000000  2.000000  2.000000  2.000000
                       2.000000  2.000000  2.000000  2.000000  2.000000  2.000000
                       2.000000  2.000000  2.000000  2.000000  2.000000  2.000000
                       2.000000  2.000000  2.000000  2.000000  2.000000  2.000000
                       2.000000  2.000000  2.000000  2.000000  2.000000  2.000000
                       2.000000  2.000000  2.000000  2.000000  2.000000  2.000000
                       2.000000  2.000000  2.000000  2.000000  2.000000  2.000000
                       2.000000  2.000000  2.000000  2.000000  2.000000  2.000000
                       2.000000  2.000000  2.000000  2.000000  2.000000  2.000000
                       2.000000  2.000000  2.000000  2.000000  2.000000  2.000000
                       2.000000  2.000000  2.000000  2.000000  2.000000  2.000000
                       2.000000  2.000000  2.000000  2.000000  2.000000  2.000000
                       2.000000  2.000000  2.000000  2.000000  2.000000  2.000000
                       2.000000  2.000000  2.000000  2.000000  2.000000  2.000000
                       2.000000  2.000000  2.000000  2.000000  2.000000  2.000000
                       2.000000  2.000000  2.000000  2.000000  2.000000  2.000000
                       2.000000  2.000000  2.000000  2.000000  2.000000  2.000000
                       2.000000  2.000000  2.000000  2.000000  2.000000  2.000000
                       2.000000  2.000000  2.000000  2.000000  2.000000  2.000000
                       2.000000  2.000000  2.000000  2.000000  2.000000  2.000000
                       2.000000  2.000000  2.000000  2.000000  2.000000  2.000000
                       2.000000  2.000000  2.000000  2.000000  2.000000  2.000000
                       2.000000  2.000000  2.000000  2.000000  2.000000  2.000000
                       2.000000  2.000000  2.000000  2.000000  2.000000  2.000000
                       2.000000  2.000000  2.000000  2.000000  2.000000  2.000000
                       2.000000  2.000000  2.000000  2.000000  2.000000  2.000000
                       2.000000  2.000000  2.000000  2.000000  2.000000  2.000000
                       2.000000  2.000000  2.000000  2.000000  2.000000  2.000000
                       2.000000  2.000000  2.000000  2.000000  2.000000  2.000000
                       2.000000  2.000000  2.000000  2.000000  2.000000  2.000000
                       2.000000  2.000000  2.000000  2.000000  2.000000  2.000000
                       2.000000  2.000000  2.000000  2.000000  2.000000  2.000000
                       2.000000  2.000000  2.000000  2.000000  2.000000  2.000000
                       2.000000  2.000000  2.000000  2.000000  2.000000  2.000000
                       2.000000  2.000000  2.000000  2.000000  2.000000  2.000000
                       2.000000  2.000000  2.000000  2.000000  2.000000  2.000000
                       2.000000  2.000000  2.000000  2.000000  2.000000  2.000000
                       2.000000  2.000000  2.000000  2.000000  2.000000  2.000000
                       2.000000  2.000000  2.000000  2.000000  2.000000  2.000000
                       2.000000  2.000000  2.000000  2.000000  2.000000  2.000000
                       2.000000  2.000000  2.000000  2.000000  2.000000  2.000000
                       2.000000  2.000000  2.000000  2.000000  2.000000  2.000000
                       2.000000  2.000000  2.000000  2.000000  2.000000  2.000000
                       2.000000  2.000000  2.000000  2.000000  2.000000  2.000000
                       2.000000  2.000000  2.000000  2.000000  2.000000  2.000000
                       2.000000  2.000000  2.000000  2.000000  2.000000  2.000000
                       2.000000  2.000000  2.000000  2.000000  2.000000  2.000000
                       2.000000  2.000000  2.000000  2.000000  2.000000  2.000000
                       2.000000  2.000000  2.000000  2.000000  2.000000  2.000000
                       2.000000  2.000000  2.000000  2.000000  2.000000  2.000000
                       2.000000  2.000000  2.000000  2.000000  2.000000  2.000000
                       2.000000  2.000000  0.000000  0.000000  0.000000  0.000000
          optcell           2
        paral_kgb           1
        pawecutdg      3.00000000E+01 Hartree
         pawmixdg           1
         pawxcdev           0
           prteig           0
            rprim      2.6787924828E+01 -4.6568177499E-01  7.8146955304E-01
                      -4.5547805023E-01  2.7390206825E+01 -1.1300589450E-01
                       3.8924276577E-01 -4.5979464898E-02  1.3611278190E+01
           shiftk      5.00000000E-01  5.00000000E-01  5.00000000E-01
          spgroup           1
        strtarget      0.00000000E+00  0.00000000E+00  0.00000000E+00
                       0.00000000E+00  1.69946000E-05  0.00000000E+00
           tolmxf      1.00000000E-08
           tolvrs      1.00000000E-20
            typat      1  1  1  1  1  1  1  1  1  1  1  1  1  1  1  1  2  2  2  2
                       2  2  2  2  2  2  2  2  2  2  2  2  3  3  3  3  3  3  3  3
                       3  3  3  3  3  3  3  3  3  3  3  3  3  3  3  3  3  3  3  3
                       3  3  3  3  3  3  3  3  3  3  3  3  3  3  3  3  3  3  3  3
                       3  3  3  3  3  3  3  3  3  3  3  3  3  3  3  3  3  3  3  3
                       3  3  3  3
           useylm           1
         wfoptalg         114
           xangst      6.1243290395E+00  6.1811442510E+00  6.1891063968E+00
                       2.0802505331E+00  4.2670357315E+00  9.0810285086E-01
                       1.5712523073E+00  2.4693582160E+00  4.4683924306E+00
                       4.5564166172E+00  8.0234578907E-01  2.4391550715E+00
                       1.3024523843E+01  5.9337333525E+00  6.6997909529E+00
                       9.7019408875E+00  4.6519333705E+00  1.4581458695E+00
                       8.1830065030E+00  2.7585417706E+00  5.3015794479E+00
                       1.1665230041E+01  8.1418136749E-01  3.0610223144E+00
                       6.1116226937E+00  1.3498834109E+01  6.2029984479E+00
                       2.6361925638E+00  1.1938745768E+01  1.1517026113E+00
                       1.4156204197E+00  9.7308770045E+00  4.6410864321E+00
                       4.6747951214E+00  8.2033219233E+00  2.5642714575E+00
                       1.2796949939E+01  1.3287552757E+01  6.5618991411E+00
                       9.2591351838E+00  1.1650478500E+01  1.7052925815E+00
                       7.8980141604E+00  9.7292329434E+00  4.9425703152E+00
[...]
                       4.6747953466E+00  8.2033224557E+00  2.5642712344E+00
                       1.2796950621E+01  1.3287552675E+01  6.5618991326E+00
                       9.2591356057E+00  1.1650478574E+01  1.7052928331E+00
                       7.8980145060E+00  9.7292331617E+00  4.9425708173E+00
                       1.1386045452E+01  8.0108652561E+00  2.6919017415E+00
                       1.2603660093E+00  9.2472077680E-01  1.1808555028E+00
                       4.7689877917E+00  2.4162978156E+00  5.7523106337E+00
                       5.6214957178E+00  4.6608683779E+00  2.4324792838E+00
                       2.3745177314E+00  5.7855163380E+00  4.7192751930E+00
                       8.4921669104E+00  1.2531672207E+00  1.4421917711E+00
                       1.1959344637E+01  2.0255272932E+00  6.2376393627E+00
                       1.3036783504E+01  4.5172158697E+00  2.7475256507E+00
                       9.5134810037E+00  5.9927170185E+00  5.3168844617E+00
                       1.2100732429E+00  8.1551533910E+00  1.2062126917E+00
                       4.5572769433E+00  9.5611949391E+00  6.0043638966E+00
                       5.9366939688E+00  1.2178149844E+01  2.3130588501E+00
                       1.9141388900E+00  1.3030869668E+01  5.1014463651E+00
                       8.0334346344E+00  8.3739350194E+00  1.6134908517E+00
                       1.1916036959E+01  9.4564661947E+00  6.1430207976E+00
                       1.2792694809E+01  1.1745923076E+01  2.7090874008E+00
                       9.5047352165E+00  1.3301324027E+01  5.4219539938E+00
                       1.0554996631E+00  4.9355358736E+00  5.6134715029E+00
                       2.4272141481E+00  2.1681341610E+00  2.1626841704E+00
                       4.6315022611E+00  5.0598097422E+00  9.9932516453E-01
                       6.2514257383E+00  1.2867712001E+00  5.2752160710E+00
                       8.3308071503E+00  4.9259244048E+00  6.4295510030E+00
                       8.6605948372E+00  2.0942155315E+00  2.9830776402E+00
                       1.1778547266E+01  5.7794928766E+00  1.8449355620E+00
                       1.3350685073E+01  1.6778958757E+00  5.1949583861E+00
                       7.6136549960E-01  1.1866790552E+01  5.8055178349E+00
                       2.1002116899E+00  9.5023061596E+00  2.0125656938E+00
                       4.7313037560E+00  1.3205692239E+01  1.1184667295E+00
                       5.8546689849E+00  8.4166947075E+00  5.2681373005E+00
                       8.0892980868E+00  1.2153003040E+01  5.5526271179E+00
                       9.2544028869E+00  9.3878392590E+00  2.7694461730E+00
                       1.2105061701E+01  1.3143194146E+01  1.8149428138E+00
                       1.3097764316E+01  9.0871112812E+00  4.8499951469E+00
                       1.3486172929E+00  2.1968780285E+00  7.0986154701E+00
                       1.4037021712E+01  7.5241793665E-01  2.6651587184E+00
                       2.3125757238E+00  1.4202706681E+01  1.7744736114E+00
                       5.5690281243E+00  6.0196686255E+00  3.5969656774E+00
                       5.2179598681E+00  3.0851224728E+00  3.1208382377E+00
                       7.2736031792E+00  4.4836015921E+00  1.8951070623E+00
                       4.3871100553E+00  1.8606066082E+00  1.9385467310E-01
                       6.0140362150E+00  3.8015260459E+00  5.6868436310E+00
                       3.7088457266E+00  1.3476332547E+00  4.6375835859E+00
                       3.6942619963E+00  6.3411119080E+00  5.7414453675E+00
                       2.8801560498E+00  4.8303076077E+00  3.3037933977E+00
                       1.6476071490E+00  7.2688065039E+00  4.0981304902E+00
                      -5.7708388366E-02  5.3670192318E+00  8.8581659011E-01
[...]
                       1.0348117853E+01  9.8508933138E+00  5.4610064092E+00
                       8.7161391000E+00  2.3143011105E-01  5.9089044635E+00
                       1.0413740552E+01  1.2544491363E+01  6.8001310849E+00
                       9.8399896236E+00  1.2896266911E+01  3.6841569968E+00
                       2.2139727595E-01  1.1553787934E+01  1.7476471328E+00
                       1.2887434286E+01  1.2177110515E+01  4.3972856733E+00
                       1.1622430024E+01  1.0438505295E+01  2.4841535171E+00
                       8.0540661773E-01 -4.0646860424E-01  1.6327034917E-02
                       3.3351449311E+00  3.6392252361E+00  5.7578236689E+00
                       1.4503444615E+01  3.5209988655E+00  3.1555542468E+00
                       1.0815756141E+01  7.1642116073E+00  4.7571469602E+00
                       2.9287842109E+00  1.0414103453E+01  6.4294253394E+00
                       7.3436652967E+00  1.1384795277E+01  3.1665617135E+00
                       6.6636439391E+00  7.3216850415E+00  9.8359720409E-01
                       1.1183082749E+01  1.4420456238E+01  5.2028139764E+00
            xcart      1.1573305161E+01  1.1680669914E+01  1.1695716156E+01
                       3.9311034450E+00  8.0635287617E+00  1.7160660037E+00
                       2.9692369093E+00  4.6664110613E+00  8.4440384124E+00
                       8.6103800629E+00  1.5162139854E+00  4.6093356548E+00
                       2.4612783565E+01  1.1213130495E+01  1.2660770091E+01
                       1.8334010752E+01  8.7908807252E+00  2.7554952009E+00
                       1.5463641615E+01  5.2128883155E+00  1.0018533741E+01
                       2.2044090817E+01  1.5385794564E+00  5.7844937291E+00
                       1.1549294084E+01  2.5509100023E+01  1.1721969266E+01
                       4.9816827719E+00  2.2560960499E+01  2.1764027107E+00
                       2.6751352496E+00  1.8388693266E+01  8.7703818636E+00
                       8.8340829325E+00  1.5502032821E+01  4.8457703635E+00
                       2.4182732009E+01  2.5109835532E+01  1.2400192272E+01
                       1.7497230522E+01  2.2016213821E+01  3.2225364310E+00
                       1.4925084410E+01  1.8385586159E+01  9.3401052370E+00
                       2.1516507641E+01  1.5138341421E+01  5.0869570680E+00
                       2.3817465847E+00  1.7474690175E+00  2.2314935027E+00
                       9.0120808574E+00  4.5661411269E+00  1.0870291729E+01
                       1.0623087364E+01  8.8077647757E+00  4.5967196703E+00
                       4.4871882101E+00  1.0933041416E+01  8.9181376605E+00
                       1.6047869735E+01  2.3681428458E+00  2.7253474784E+00
                       2.2599886094E+01  3.8276918589E+00  1.1787430111E+01
                       2.4635950475E+01  8.5363008769E+00  5.1920710229E+00
                       1.7977873667E+01  1.1324593957E+01  1.0047455513E+01
                       2.2867070299E+00  1.5411006481E+01  2.2794116453E+00
                       8.6120053345E+00  1.8068039938E+01  1.1346603367E+01
                       1.1218725736E+01  2.3013368009E+01  4.3710477560E+00
                       3.6171982823E+00  2.4624774946E+01  9.6403365117E+00
                       1.5180991365E+01  1.5824443841E+01  3.0490558276E+00
                       2.2518046441E+01  1.7870131293E+01  1.1608626936E+01
                       2.4174689690E+01  2.2196577792E+01  5.1194332575E+00
                       1.7961346525E+01  2.5135859617E+01  1.0246008153E+01
                       1.9946052967E+00  9.3268111201E+00  1.0607923795E+01
                       4.5867700057E+00  4.0971797837E+00  4.0868807940E+00
                       8.7522708574E+00  9.5616546973E+00  1.8884508787E+00
                       1.1813482586E+01  2.4316451639E+00  9.9687136660E+00
                       1.5742943980E+01  9.3086480764E+00  1.2150090553E+01
                       1.6366152390E+01  3.9574938179E+00  5.6371997731E+00
                       2.2258228576E+01  1.0921658724E+01  3.4864229450E+00
                       2.5229138474E+01  3.1707636845E+00  9.8170486214E+00
                       1.4387722813E+00  2.2424984219E+01  1.0970838768E+01
                       3.9688249150E+00  1.7956756272E+01  3.8031979858E+00
                       8.9408683503E+00  2.4955141726E+01  2.1135958075E+00
                       1.1063720980E+01  1.5905247941E+01  9.9553367284E+00
                       1.5286557991E+01  2.2965847438E+01  1.0492944571E+01
                       1.7488286980E+01  1.7740445179E+01  5.2334948068E+00
                       2.2875251436E+01  2.4837037447E+01  3.4297448648E+00
                       2.4751187510E+01  1.7172151661E+01  9.1651625734E+00
                       2.5485173417E+00  4.1514978211E+00  1.3414439161E+01
                       2.6526126757E+01  1.4218638377E+00  5.0364200785E+00
                       4.3701347796E+00  2.6839225972E+01  3.3532691556E+00
                       1.0523937981E+01  1.1375525113E+01  6.7972800396E+00
                       9.8605151231E+00  5.8300365600E+00  5.8975295743E+00
                       1.3745118008E+01  8.4727790980E+00  3.5812333402E+00
                       8.2904365194E+00  3.5160369305E+00  3.6633224174E-01
                       1.1364881400E+01  7.1838431138E+00  1.0746577023E+01
                       7.0087026924E+00  2.5466577790E+00  8.7637628957E+00
                       6.9811434361E+00  1.1982964884E+01  1.0849759351E+01
                       5.4427061541E+00  9.1279585162E+00  6.2432647213E+00
                       3.1135262862E+00  1.3736053605E+01  7.7443442833E+00
                      -1.0905304958E-01  1.0142196498E+01  1.6739507593E+00
[...]
                       1.9555108733E+01  1.8615490527E+01  1.0319806523E+01
                       1.6471115835E+01  4.3733952880E-01  1.1166211181E+01
                       1.9679117663E+01  2.3705653152E+01  1.2850385418E+01
                       1.8594885539E+01  2.4370412597E+01  6.9620477545E+00
                       4.1838021812E-01  2.1833494993E+01  3.3025744579E+00
                       2.4353721357E+01  2.3011403962E+01  8.3096656506E+00
                       2.1963209744E+01  1.9725916244E+01  4.6943698193E+00
                       1.5219979331E+00 -7.6811434363E-01  3.0853624554E-02
                       6.3025105332E+00  6.8771390322E+00  1.0880709856E+01
                       2.7407538306E+01  6.6537235699E+00  5.9631333239E+00
                       2.0438817027E+01  1.3538397896E+01  8.9897049287E+00
                       5.5346000609E+00  1.9679803446E+01  1.2149853083E+01
                       1.3877516222E+01  2.1514145152E+01  5.9839344214E+00
                       1.2592462092E+01  1.3835979560E+01  1.8587293408E+00
                       2.1132963718E+01  2.7250713001E+01  9.8318935358E+00
             xred      4.2725122411E-01  4.3512557967E-01  8.3834918372E-01
                       1.5005888270E-01  2.9714717466E-01  1.1992840625E-01
                       1.0483928090E-01  1.7318402915E-01  6.1578937213E-01
                       3.1780701720E-01  6.1298032540E-02  3.2090345025E-01
                       9.1324598549E-01  4.2639081848E-01  8.8127510915E-01
                       6.8766583696E-01  3.3291949617E-01  1.6572485276E-01
                       5.7043915344E-01  2.0120129876E-01  7.0496610226E-01
                       8.1861326523E-01  7.0725963476E-02  3.7856582425E-01
                       4.3485896018E-01  9.4013213990E-01  8.4403392420E-01
                       1.9777611949E-01  8.2731053463E-01  1.5541064973E-01
                       1.0196757444E-01  6.7417498850E-01  6.4408961674E-01
                       3.3454527236E-01  5.7223111976E-01  3.4155490457E-01
                       9.0602721580E-01  9.3360406350E-01  8.6675637633E-01
                       6.6405636843E-01  8.1543365737E-01  2.0539917413E-01
                       5.5916423819E-01  6.8186100191E-01  6.5976093224E-01
                       8.0803238180E-01  5.6698711476E-01  3.3204648912E-01
                       8.7708950554E-02  6.5557920455E-02  1.5945306574E-01
                       3.2802319243E-01  1.7359547771E-01  7.8123219980E-01
                       3.9753894783E-01  3.2885824094E-01  3.1762027583E-01
                       1.6492954314E-01  4.0305246002E-01  6.4907919244E-01
                       5.9829684585E-01  9.6911372565E-02  1.6668149572E-01
                       8.3439401601E-01  1.5530838312E-01  8.1938867635E-01
                       9.2042647048E-01  3.2786027742E-01  3.3133080772E-01
                       6.6814176422E-01  4.2599439773E-01  7.0334781795E-01
                       9.2537344561E-02  5.6449995089E-01  1.6683872480E-01
                       3.2089506572E-01  6.6648679816E-01  8.2072750927E-01
                       4.2880573947E-01  8.4800425756E-01  3.0355551068E-01
                       1.4009459596E-01  9.0260560968E-01  7.0771138060E-01
                       5.7385795542E-01  5.8782645109E-01  1.9594273483E-01
                       8.4019135827E-01  6.6807250829E-01  8.1017658909E-01
                       9.1169498828E-01  8.2643915917E-01  3.3063491026E-01
                       6.7583481596E-01  9.3039697784E-01  7.2168123121E-01
                       6.8982934312E-02  3.4299550851E-01  7.7823522556E-01
                       1.6958618330E-01  1.5295865701E-01  2.9179034354E-01
                       3.3097658557E-01  3.5492339922E-01  1.2268584290E-01
                       4.3236198397E-01  9.7317944393E-02  7.0837089725E-01
                       5.8113100947E-01  3.5118075149E-01  8.6219968171E-01
                       6.0806655125E-01  1.5546271720E-01  3.8053607650E-01
                       8.3485727437E-01  4.1329251230E-01  2.1164153413E-01
                       9.3435102293E-01  1.3277081930E-01  6.6870174689E-01
                       5.5905651742E-02  8.2103228088E-01  8.0961768706E-01
                       1.5534717247E-01  6.5869481112E-01  2.7596491462E-01
                       3.4728354859E-01  9.1724163880E-01  1.4295923455E-01
                       4.1267022033E-01  5.8890338908E-01  7.1260000788E-01
                       5.7426992260E-01  8.4948347182E-01  7.4498268688E-01
                       6.5893870371E-01  6.5948723634E-01  3.5214033823E-01
                       8.6656390386E-01  9.2187073683E-01  2.0987949976E-01
                       9.2582413670E-01  6.4373565349E-01  6.2554044160E-01
                       8.3496702791E-02  1.5463679387E-01  9.8202855090E-01
                       9.8684225250E-01  6.9216439319E-02  3.1393485722E-01
                       1.7630596781E-01  9.8329179195E-01  2.4440093291E-01
                       3.9307078662E-01  4.2280279653E-01  4.8032860778E-01
                       3.6581505710E-01  2.1976577782E-01  4.1410445966E-01
                       5.1509223445E-01  3.1849001289E-01  2.3617881975E-01
                       3.1160987573E-01  1.3368331984E-01  1.0133183972E-02
                       4.1769954056E-01  2.7066831143E-01  7.6780037902E-01
                       2.5415351805E-01  9.8355712657E-02  6.3008515707E-01
                       2.5672139045E-01  4.4317509684E-01  7.8605554433E-01
                       2.0237854102E-01  3.3745225068E-01  4.4986561794E-01
                       1.1657459203E-01  5.0442794062E-01  5.6646024894E-01
                       3.9736820902E-04  3.7050382880E-01  1.2603587171E-01
[...]
                       7.3129482141E-01  6.9328559018E-01  7.2195035289E-01
                       6.0391956962E-01  2.7554004735E-02  7.8592031772E-01
                       7.3637103437E-01  8.7952487613E-01  9.0912293599E-01
                       7.0254199463E-01  9.0249706178E-01  4.7864864948E-01
                       2.5585813611E-02  7.9797874674E-01  2.4779128808E-01
                       9.1548572420E-01  8.5664592969E-01  5.6504960108E-01
                       8.2797617430E-01  7.3476779221E-01  3.0345163471E-01
                       5.6373363977E-02 -2.7086952554E-02 -1.1947026559E-03
                       2.2817580089E-01  2.5628310208E-01  7.8841668400E-01
                       1.0220223862E+00  2.6094019094E-01  3.8159102615E-01
                       7.6260669127E-01  5.0828670838E-01  6.2089615396E-01
                       2.0602376344E-01  7.2348923216E-01  8.8680945532E-01
                       5.2552480724E-01  7.9510178442E-01  4.1605966591E-01
                       4.7716183286E-01  5.1344629124E-01  1.1342537136E-01
                       7.9611152126E-01  1.0095923575E+00  6.8500887332E-01
            znucl       57.00000   42.00000    8.00000

- Timing analysis has been suppressed with timopt=0

 Suggested references for the acknowledgment of ABINIT usage.

 Calculation completed.
.Delivered   0 WARNINGs and   0 COMMENTs to log file.