.Version 9.3.2 of ABINIT

 ABINIT is a project of the Universite Catholique de Louvain,
 Corning Inc. and other collaborators, see ~abinit/doc/developers/contributors.txt .
 acknowledgments of the ABINIT effort.

.Starting date : Thu 14 Oct 2021.
- ( at 02h03 )

- input  file    -> abi.in
- output file    -> abi.out
- root for input  files -> abi-i
- root for output files -> abi-o

- inpspheads : Reading pseudopotential header in XML form from
-   ~/ABINIT_PAW_PBE/paw_pbe_standard/La.xml
- inpspheads : Reading pseudopotential header in XML form from
-   ~/ABINIT_PAW_PBE/paw_pbe_standard/Mo.xml
- inpspheads : Reading pseudopotential header in XML form from
-   ~/ABINIT_PAW_PBE/paw_pbe_standard/O.xml

 DATASET    1 : space group P1 (#  1); Bravais aP (primitive triclinic)
     intxc =       0    ionmov =       2      iscf =       7    lmnmax =      32
     lnmax =       8     mgfft =      75  mpssoang =       4    mqgrid =    3469
     natom =      26  nloc_mem =       2    nspden =       1   nspinor =       1
    nsppol =       1      nsym =       1    n1xccc =       1    ntypat =       3
    occopt =       1   xclevel =       2
-    mband =         104        mffmem =           1         mkmem =           1
       mpw =        1413          nfft =       27000          nkpt =           4
Pmy_natom=         7
 PAW method is used; the additional fine FFT grid is defined by:
   mgfftf=        75    nfftf =     27000
  Rough estimation (10% accuracy) of disk space for files :

------------- Echo of variables that govern the present computation ------------
-
- outvars: echo of selected default values
-   iomode0 =  0 , fftalg0 =512 , wfoptalg0 = 10
-
- outvars: echo of global parameters not present in the input file
-  max_nthreads =    1
-
 -outvars: echo values of preprocessed input variables --------
-          iomode           1
            acell      1.0000000000E+00  1.0000000000E+00  1.0000000000E+00 Bohr
              amu      1.38905500E+02  9.59400000E+01  1.59994000E+01
        autoparal           1
           bandpp          26
     densfor_pred           6
           diemac      4.00000000E+00
          dilatmx      1.04000000E+00
             ecut      3.00000000E+01 Hartree
           ecutsm      5.00000000E-01 Hartree
-          fftalg         401
           ionmov           2
             iscf           7
              ixc     -116133
           jdtset        1
              kpt      2.50000000E-01  2.50000000E-01  2.50000000E-01
                      -2.50000000E-01  2.50000000E-01  2.50000000E-01
                       2.50000000E-01 -2.50000000E-01  2.50000000E-01
                      -2.50000000E-01 -2.50000000E-01  2.50000000E-01
         kptrlatt        2    0    0      0    2    0      0    0    2
          kptrlen      2.66399973E+01
P           mkmem           1
            natom          26
            nband         104
           ndtset           1
            ngfft          72      75      75
          ngfftdg          72      75      75
             nkpt           4
-           npfft          15
-           npkpt           4
            nstep         100
             nsym           1
            ntime         250
           ntypat           3
              occ      2.000000  2.000000  2.000000  2.000000  2.000000  2.000000
                       2.000000  2.000000  2.000000  2.000000  2.000000  2.000000
                       2.000000  2.000000  2.000000  2.000000  2.000000  2.000000
                       2.000000  2.000000  2.000000  2.000000  2.000000  2.000000
                       2.000000  2.000000  2.000000  2.000000  2.000000  2.000000
                       2.000000  2.000000  2.000000  2.000000  2.000000  2.000000
                       2.000000  2.000000  2.000000  2.000000  2.000000  2.000000
                       2.000000  2.000000  2.000000  2.000000  2.000000  2.000000
                       2.000000  2.000000  2.000000  2.000000  2.000000  2.000000
                       2.000000  2.000000  2.000000  2.000000  2.000000  2.000000
                       2.000000  2.000000  2.000000  2.000000  2.000000  2.000000
                       2.000000  2.000000  2.000000  2.000000  2.000000  2.000000
                       2.000000  2.000000  2.000000  2.000000  2.000000  2.000000
                       2.000000  2.000000  2.000000  2.000000  2.000000  2.000000
                       2.000000  2.000000  2.000000  2.000000  2.000000  2.000000
                       2.000000  2.000000  2.000000  2.000000  2.000000  2.000000
                       2.000000  2.000000  2.000000  2.000000  2.000000  2.000000
                       2.000000  2.000000
        paral_kgb           1
        pawecutdg      3.00000000E+01 Hartree
         pawmixdg           1
         pawxcdev           0
           prteig           0
            rprim      1.3319995856E+01  3.9235770265E-04 -8.6083592955E-03
                       6.3848818302E-04  1.3578227983E+01 -6.7658060405E-01
                      -8.6954856006E-03 -7.0147473141E-01  1.3570647793E+01
           shiftk      5.00000000E-01  5.00000000E-01  5.00000000E-01
          spgroup           1
           tolmxf      1.00000000E-10
           tolvrs      1.00000000E-20
            typat      1  1  1  1  2  2  2  2  3  3  3  3  3  3  3  3  3  3  3  3
                       3  3  3  3  3  3
           useylm           1
         wfoptalg         114
              wtk        0.25000    0.25000    0.25000    0.25000
           xangst      6.1676248451E+00  5.6775817515E+00  6.1326410484E+00
                       2.6446379113E+00  4.7336341867E+00  5.1128275709E-01
                       9.0238493538E-01  2.4392484996E+00  4.7457464127E+00
                       4.4357102981E+00  8.0185111909E-01  2.2450326504E+00
                       1.1857472105E+00  1.3941437016E+00  1.3845777860E+00
                       4.7072042635E+00  1.8309832843E+00  5.6105585085E+00
                       5.9106311874E+00  4.3420883940E+00  2.0088093036E+00
                       2.3895916489E+00  6.0644302656E+00  4.6312776985E+00
                       2.2274921364E+00  1.9018947292E+00  2.7845922641E+00
                       5.7548154897E+00  1.3291184276E+00  4.2133235070E+00
                       4.7984312866E+00  5.7210553823E+00  1.1243138571E+00
                       1.2709158434E+00  4.6918569195E+00  5.5341910950E+00
                       6.7367278976E+00  4.4425953888E-01  1.4029695227E+00
                       3.2074492526E+00  2.7734576473E+00  5.5717457440E+00
                       1.7624979513E-01  4.9687126357E+00  8.9296715339E-01
                       3.6995325793E+00  5.4382436503E+00  5.7599725098E+00
                       2.3304365337E+00  7.2414558478E+00  6.1854710699E-01
                       9.4604920398E-01 -1.1559763405E-02  5.3566085435E+00
                       5.8465880356E+00  3.1677242359E+00  6.0312930841E+00
                       4.4635629624E+00  3.2366139640E+00  1.6337094215E+00
                       1.3310826672E+00  2.1759808731E+00  7.2367853512E+00
                       5.9100718924E+00  5.0377827055E+00  3.6187477214E+00
                       2.3742807479E+00  5.3410314558E+00  3.0336767655E+00
                       4.8510694046E+00  1.0447717704E+00 -2.4397291315E-01
                       6.9970751686E+00  2.8580036054E+00  2.3962677875E+00
                       3.4835633397E+00  7.5341685817E+00  4.2262546436E+00
            xcart      1.1655121848E+01  1.0729074607E+01  1.1589012053E+01
                       4.9976413730E+00  8.9452722262E+00  9.6618438737E-01
                       1.7052603943E+00  4.6095116343E+00  8.9681610161E+00
                       8.3822776682E+00  1.5152790144E+00  4.2424968687E+00
                       2.2407374907E+00  2.6345497859E+00  2.6164728251E+00
                       8.8953269097E+00  3.4600569613E+00  1.0602419034E+01
                       1.1169474217E+01  8.2053579095E+00  3.7960994371E+00
                       4.5156737859E+00  1.1460112354E+01  8.7518464955E+00
                       4.2093501010E+00  3.5940601718E+00  5.2621167709E+00
                       1.0875025221E+01  2.5116698264E+00  7.9620275375E+00
                       9.0677209992E+00  1.0811227864E+01  2.1246452774E+00
                       2.4016828820E+00  8.8663246325E+00  1.0458105537E+01
                       1.2730570758E+01  8.3952886041E-01  2.6512281707E+00
                       6.0612006726E+00  5.2410753946E+00  1.0529073538E+01
                       3.3306384377E-01  9.3895061145E+00  1.6874633656E+00
                       6.9911033945E+00  1.0276791143E+01  1.0884770576E+01
                       4.4038868187E+00  1.3684368356E+01  1.1688846325E+00
                       1.7877739037E+00 -2.1844786997E-02  1.0122523148E+01
                       1.1048450199E+01  5.9861312703E+00  1.1397492156E+01
                       8.4349115758E+00  6.1163139899E+00  3.0872633874E+00
                       2.5153817012E+00  4.1120079206E+00  1.3675542396E+01
                       1.1168417302E+01  9.5200296304E+00  6.8384421375E+00
                       4.4867403760E+00  1.0093086719E+01  5.7328182625E+00
                       9.1671926264E+00  1.9743325175E+00 -4.6104198970E-01
                       1.3222555800E+01  5.4008441009E+00  4.5282898594E+00
                       6.5829806786E+00  1.4237515258E+01  7.9864638442E+00
             xred      8.7555439964E-01  8.3644318736E-01  8.9623358899E-01
                       3.7523483127E-01  6.6418556805E-01  1.0454840757E-01
                       1.2844829349E-01  3.7458408900E-01  6.7960669343E-01
                       6.2950269568E-01  1.2807919994E-01  3.1940787371E-01
                       1.6834637548E-01  2.0451550444E-01  2.0310697593E-01
                       6.6832329421E-01  2.9595081334E-01  7.9645474155E-01
                       8.3872278864E-01  6.2035489669E-01  3.1118923866E-01
                       3.3942226618E-01  8.7959047979E-01  6.8897832771E-01
                       3.1626624504E-01  2.8546155783E-01  4.0218986896E-01
                       8.1682361816E-01  2.1584727150E-01  5.9798892799E-01
                       6.8085012588E-01  8.0638574219E-01  1.9719701471E-01
                       1.8079905153E-01  6.9458336643E-01  8.0538554386E-01
                       9.5587567600E-01  7.2111370512E-02  1.9956643838E-01
                       4.5554535234E-01  4.2717598403E-01  7.9745743803E-01
                       2.5075219084E-02  6.9973823195E-01  1.5924873821E-01
                       5.2536928798E-01  8.0035846931E-01  8.4231794494E-01
                       3.3066298565E-01  1.0148820167E+00  1.3694118472E-01
                       1.3470373069E-01  3.7022225787E-02  7.4784427397E-01
                       8.3000463414E-01  4.8550499255E-01  8.6459545441E-01
                       6.3339346090E-01  4.6339891736E-01  2.5100073609E-01
                       1.8949499245E-01  3.5581657712E-01  1.0255893782E+00
                       8.3878811986E-01  7.2903867954E-01  5.4079335556E-01
                       3.3710658713E-01  7.6712999084E-01  4.6090249817E-01
[...]
 kpt#   1, nband=104, wtk=  0.25000, kpt=  0.2500  0.2500  0.2500 (reduced coord)
  -2.13374   -2.13370   -2.12688   -2.12651   -1.19280   -1.19272   -1.19137   -1.19129
  -1.18541   -1.18535   -1.18443   -1.18404   -1.17825   -1.17789   -1.17766   -1.17729
  -0.98131   -0.98112   -0.97698   -0.97603   -0.52821   -0.52629   -0.51540   -0.51043
  -0.50861   -0.50246   -0.49791   -0.49659   -0.49221   -0.48707   -0.48447   -0.48140
  -0.47800   -0.47606   -0.47372   -0.47000   -0.46635   -0.46382   -0.38270   -0.37893
  -0.37607   -0.37448   -0.37016   -0.36639   -0.36487   -0.36001   -0.35681   -0.35622
  -0.34781   -0.33741   -0.06756   -0.06266   -0.05936   -0.05314   -0.05204   -0.04692
  -0.04522   -0.04208   -0.03807   -0.03203   -0.02895   -0.02462   -0.02369   -0.02071
  -0.01887   -0.01601   -0.01240   -0.00999   -0.00776   -0.00518    0.00193    0.00692
   0.01288    0.01889    0.02447    0.02674    0.02988    0.03429    0.03922    0.04207
   0.04464    0.05021    0.05491    0.05679    0.06051    0.06331    0.06472    0.06997
   0.07157    0.07486    0.07699    0.08238    0.08568    0.08753    0.09024    0.09152
   0.09319    0.09499    0.09794    0.10066    0.10254    0.10555    0.11109    0.11842
 prteigrs : prtvol=0 or 1, do not print more k-points.

--- !EnergyTerms
iteration_state     : {dtset: 1, itime: 176, icycle: 1, }
comment             : Components of total free energy in Hartree
kinetic             :  2.14109510319960E+02
hartree             :  1.85343568831928E+02
xc                  : -9.12505997947427E+01
Ewald energy        : -5.05566758592747E+02
psp_core            :  3.66768142252323E+01
local_psp           : -5.78158466080483E+02
spherical_terms     :  4.44856443693735E+01
total_energy        : -6.94360286721479E+02
total_energy_eV     : -1.88945042991178E+04
...

--- !EnergyTermsDC
iteration_state     : {dtset: 1, itime: 176, icycle: 1, }
comment             : '"Double-counting" decomposition of free energy'
band_energy         : -7.67319971196019E+01
Ewald energy        : -5.05566758592747E+02
psp_core            :  3.66768142252323E+01
xc_dc               : -1.57464971228525E+02
spherical_terms     :  8.72662599416465E+00
total_energy_dc     : -6.94360286721478E+02
total_energy_dc_eV  : -1.88945042991178E+04
...

 rms coord change=  1.3495E-03   atom, delta coord (reduced):
     1        0.000465407589     -0.001174577524     -0.000956215416
     2        0.000513447511      0.000831546143      0.000460931615
     3        0.001543003037     -0.001814190829      0.001586151986
     4        0.000910984688      0.000284630672     -0.001173968458
     5        0.000393218263      0.000773789106     -0.000393715378
     6        0.000381921259     -0.000552776755      0.000874799473
     7       -0.000225901851     -0.000867781978     -0.000493749773
     8       -0.000695327928      0.000772769389      0.000159682774
     9       -0.000102907461      0.000855026854      0.000008171136
    10       -0.000870004318     -0.000701458569     -0.000068172254
    11        0.000050116964     -0.000366131422     -0.001049163886
    12       -0.000062284158     -0.000327438016     -0.000428747456
    13        0.000664112071     -0.000043237274     -0.001779344972
    14        0.000839576626      0.000902634690      0.003515926451
    15        0.000909416042      0.000391045427      0.002157982747
    16        0.000567716619     -0.000377552026     -0.002852004371
    17        0.001855316898      0.001975066626     -0.001476694732
    18       -0.002031051002     -0.000212303575      0.002261913252
    19        0.002333305474     -0.002061170851      0.001558991603
    20       -0.000818322695     -0.000582360145     -0.002194785768
    21       -0.000254419375      0.002933391871      0.001475188498
    22       -0.001664771002     -0.000597162906     -0.000639826423
    23       -0.000583123537      0.001760101829     -0.000236319167
    24        0.000251159636     -0.003097082124     -0.001431359465
    25       -0.001423670719     -0.001543736772      0.000208394372
    26       -0.002946918631      0.002838958160      0.000905933612

 Cartesian components of stress tensor (hartree/bohr^3)
  sigma(1 1)=  4.44540872E-06  sigma(3 2)=  1.78234429E-06
  sigma(2 2)=  3.41560562E-06  sigma(3 1)= -9.11168488E-07
  sigma(3 3)=  2.38065337E-06  sigma(2 1)=  1.46583650E-07

-Cartesian components of stress tensor (GPa)         [Pressure= -1.0044E-01 GPa]
- sigma(1 1)=  1.30788418E-01  sigma(3 2)=  5.24383706E-02
- sigma(2 2)=  1.00490570E-01  sigma(3 1)= -2.68074979E-02
- sigma(3 3)=  7.00412286E-02  sigma(2 1)=  4.31263916E-03

== END DATASET(S) ==============================================================

 -outvars: echo values of variables after computation  --------
-          iomode           1
            acell      1.0000000000E+00  1.0000000000E+00  1.0000000000E+00 Bohr
              amu      1.38905500E+02  9.59400000E+01  1.59994000E+01
        autoparal           1
           bandpp          26
     densfor_pred           6
           diemac      4.00000000E+00
          dilatmx      1.04000000E+00
             ecut      3.00000000E+01 Hartree
           ecutsm      5.00000000E-01 Hartree
           etotal1    -6.9436028672E+02
            fcart1    -4.9738941976E-11 -2.6089803989E-11 -4.2536401545E-12
                      -1.4699095992E-11  7.2510487791E-12  2.7079955307E-11
                      -7.4133147876E-12 -9.3809444593E-11  2.1125243422E-12
                      -9.3531513440E-12 -1.5373333955E-11 -4.7032853422E-11
                      -1.0089590635E-12  1.4433212887E-11  1.8684349409E-11
                       7.1669873676E-12  2.8638357843E-11 -1.9494997360E-11
                       3.6406508322E-11 -1.3157005439E-11  8.0410924840E-12
                       3.9221256132E-11 -6.4951298218E-11  9.0702613394E-13
                       7.2341033927E-11  5.1580275588E-11  4.4811837063E-12
                       5.0730382067E-11  2.2706554907E-11 -2.3129113663E-11
                      -4.6600530990E-11  5.2377649221E-11  2.3859643201E-11
                      -4.9647017996E-12  5.0305828096E-11  7.9136090398E-12
                       8.8446119054E-12 -8.3366721026E-11 -1.4113957591E-11
                      -7.4981251615E-11 -3.2818937967E-11 -3.3250263931E-11
                      -3.7248369746E-11  4.8646966269E-11  5.9663011497E-12
                       2.9452933087E-11  6.9833828610E-12  3.2543133062E-11
                       1.7520986167E-11 -1.9494437613E-11  7.0626586546E-11
                       2.6573638032E-11  7.0791270862E-13  6.2194434309E-14
                       5.4437446270E-11  6.4841156434E-11  1.1137310933E-11
                      -1.3879154851E-12  1.4012805512E-12 -3.4964994022E-11
                      -2.9906953812E-11  4.3133511165E-11 -3.6063756555E-11
                      -7.6233124407E-11  1.9378246176E-12 -1.9376320380E-11
                       2.7975097316E-11  3.8206616224E-12 -2.4393642002E-11
                      -3.5524215026E-11 -2.4333236087E-11  4.9641793531E-12
                       3.3022687090E-11 -3.3727051177E-11  5.8572723058E-11
                      -1.4633041618E-11  8.3556465080E-12 -2.0878273077E-11
-          fftalg         401
           ionmov           2
             iscf           7
              ixc     -116133
           jdtset        1
              kpt      2.50000000E-01  2.50000000E-01  2.50000000E-01
                      -2.50000000E-01  2.50000000E-01  2.50000000E-01
                       2.50000000E-01 -2.50000000E-01  2.50000000E-01
                      -2.50000000E-01 -2.50000000E-01  2.50000000E-01
         kptrlatt        2    0    0      0    2    0      0    0    2
          kptrlen      2.66399973E+01
P           mkmem           1
            natom          26
            nband         104
           ndtset           1
            ngfft          72      75      75
          ngfftdg          72      75      75
             nkpt           4
-           npfft          15
-           npkpt           4
            nstep         100
             nsym           1
            ntime         250
           ntypat           3
              occ      2.000000  2.000000  2.000000  2.000000  2.000000  2.000000
                       2.000000  2.000000  2.000000  2.000000  2.000000  2.000000
                       2.000000  2.000000  2.000000  2.000000  2.000000  2.000000
                       2.000000  2.000000  2.000000  2.000000  2.000000  2.000000
                       2.000000  2.000000  2.000000  2.000000  2.000000  2.000000
                       2.000000  2.000000  2.000000  2.000000  2.000000  2.000000
                       2.000000  2.000000  2.000000  2.000000  2.000000  2.000000
                       2.000000  2.000000  2.000000  2.000000  2.000000  2.000000
                       2.000000  2.000000  2.000000  2.000000  2.000000  2.000000
                       2.000000  2.000000  2.000000  2.000000  2.000000  2.000000
                       2.000000  2.000000  2.000000  2.000000  2.000000  2.000000
                       2.000000  2.000000  2.000000  2.000000  2.000000  2.000000
                       2.000000  2.000000  2.000000  2.000000  2.000000  2.000000
                       2.000000  2.000000  2.000000  2.000000  2.000000  2.000000
                       2.000000  2.000000  2.000000  2.000000  2.000000  2.000000
                       2.000000  2.000000  2.000000  2.000000  2.000000  2.000000
                       2.000000  2.000000  2.000000  2.000000  2.000000  2.000000
                       2.000000  2.000000
        paral_kgb           1
        pawecutdg      3.00000000E+01 Hartree
         pawmixdg           1
         pawxcdev           0
           prteig           0
            rprim      1.3319995856E+01  3.9235770265E-04 -8.6083592955E-03
                       6.3848818302E-04  1.3578227983E+01 -6.7658060405E-01
                      -8.6954856006E-03 -7.0147473141E-01  1.3570647793E+01
           shiftk      5.00000000E-01  5.00000000E-01  5.00000000E-01
          spgroup           1
           strten1     4.4454087200E-06  3.4156056181E-06  2.3806533743E-06
                       1.7823442880E-06 -9.1116848836E-07  1.4658365032E-07
           tolmxf      1.00000000E-10
           tolvrs      1.00000000E-20
            typat      1  1  1  1  2  2  2  2  3  3  3  3  3  3  3  3  3  3  3  3
                       3  3  3  3  3  3
           useylm           1
         wfoptalg         114
              wtk        0.25000    0.25000    0.25000    0.25000
           xangst      6.1709093380E+00  5.6694971208E+00  6.1261926152E+00
                       2.6482551770E+00  4.7394380927E+00  5.1429277668E-01
                       9.1325309401E-01  2.4256245483E+00  4.7577795180E+00
                       4.4421369977E+00  8.0433224411E-01  2.2364960007E+00
                       1.1885209369E+00  1.3998498303E+00  1.3814715748E+00
                       4.7098920762E+00  1.8266867736E+00  5.6170368578E+00
                       5.9090408657E+00  4.3360363651E+00  2.0055752714E+00
                       2.3846900603E+00  6.0699234175E+00  4.6321509168E+00
                       2.2267670302E+00  1.9080352896E+00  2.7843452859E+00
                       5.7486832207E+00  1.3241033704E+00  4.2130890503E+00
                       4.7987892469E+00  5.7188140870E+00  1.1169103782E+00
                       1.2704786871E+00  4.6896633228E+00  5.5312296573E+00
                       6.7414171563E+00  4.4460950522E-01  1.3902040077E+00
                       3.2133512511E+00  2.7786383851E+00  5.5966675918E+00
                       1.8265014208E-01  4.9707215461E+00  9.0832007727E-01
                       3.7035472042E+00  5.4365896245E+00  5.7396240641E+00
                       2.3435214535E+00  7.2561958128E+00  6.0722696555E-01
                       9.3172258043E-01 -1.3925279846E-02  5.3729372337E+00
                       5.8630267917E+00  3.1523359080E+00  6.0432159696E+00
                       4.4578048042E+00  3.2332440825E+00  1.6181602866E+00
                       1.3292835602E+00  2.1965104915E+00  7.2463300028E+00
                       5.8983402662E+00  5.0337290784E+00  3.6143743368E+00
                       2.3701722031E+00  5.3537658974E+00  3.0313521772E+00
                       4.8528452779E+00  1.0230497201E+00 -2.5314419530E-01
                       6.9870387482E+00  2.8468337583E+00  2.3983235163E+00
                       3.4627883670E+00  7.5542304175E+00  4.2317573934E+00
            xcart      1.1661328640E+01  1.0713796870E+01  1.1576826280E+01
                       5.0044770146E+00  8.9562400189E+00  9.7187250004E-01
                       1.7257982377E+00  4.5837660975E+00  8.9909002897E+00
                       8.3944223705E+00  1.5199676612E+00  4.2263649385E+00
                       2.2459790739E+00  2.6453328065E+00  2.6106029367E+00
                       8.9004061395E+00  3.4519377326E+00  1.0614661339E+01
                       1.1166468944E+01  8.1939212323E+00  3.7899880019E+00
                       4.5064111257E+00  1.1470492907E+01  8.7534966390E+00
                       4.2079798489E+00  3.6056641491E+00  5.2616500498E+00
                       1.0863436912E+01  2.5021927418E+00  7.9615844784E+00
                       9.0683974462E+00  1.0806992429E+01  2.1106547298E+00
                       2.4008567764E+00  8.8621793356E+00  1.0452509230E+01
                       1.2739432173E+01  8.4019020095E-01  2.6271048434E+00
                       6.0723538334E+00  5.2508655701E+00  1.0576169005E+01
                       3.4515874666E-01  9.3933024050E+00  1.7164761870E+00
                       6.9986899361E+00  1.0273665487E+01  1.0846317587E+01
                       4.4286137337E+00  1.3712222853E+01  1.1474926654E+00
                       1.7607005088E+00 -2.6314965233E-02  1.0153379901E+01
                       1.1079514946E+01  5.9570515449E+00  1.1420023144E+01
                       8.4240302338E+00  6.1099458368E+00  3.0578797808E+00
                       2.5119818817E+00  4.1508032769E+00  1.3693579174E+01
                       1.1146247742E+01  9.5123693852E+00  6.8301776383E+00
                       4.4789763517E+00  1.0117151326E+01  5.7284254273E+00
                       9.1705485406E+00  1.9332837914E+00 -4.7837320124E-01
                       1.3203589714E+01  5.3797361491E+00  4.5321746239E+00
                       6.5437216698E+00  1.4275426634E+01  7.9968625343E+00
             xred      8.7601980723E-01  8.3526860984E-01  8.9527737357E-01
                       3.7574827878E-01  6.6501711419E-01  1.0500933918E-01
                       1.2999129653E-01  3.7276989817E-01  6.8119284541E-01
                       6.3041368036E-01  1.2836383061E-01  3.1823390525E-01
                       1.6873959374E-01  2.0528929354E-01  2.0271326056E-01
                       6.6870521547E-01  2.9539803659E-01  7.9732954102E-01
                       8.3849688678E-01  6.1948711471E-01  3.1069548889E-01
                       3.3872693825E-01  8.8036324918E-01  6.8913801048E-01
                       3.1616333758E-01  2.8631658468E-01  4.0219804009E-01
                       8.1595361384E-01  2.1514581293E-01  5.9792075574E-01
                       6.8090024284E-01  8.0601961077E-01  1.9614785082E-01
                       1.8073676737E-01  6.9425592842E-01  8.0495679641E-01
                       9.5653978807E-01  7.2068133238E-02  1.9778709341E-01
                       4.5638492897E-01  4.2807861872E-01  8.0097336448E-01
                       2.5984635127E-02  7.0012927738E-01  1.6140672095E-01
                       5.2593700459E-01  7.9998091728E-01  8.3946594057E-01
                       3.3251830255E-01  1.0168570833E+00  1.3546448998E-01
                       1.3267267969E-01  3.6809922212E-02  7.5010618723E-01
                       8.3233793961E-01  4.8344382170E-01  8.6615444602E-01
                       6.3257513820E-01  4.6281655721E-01  2.4880595032E-01
                       1.8924057308E-01  3.5874996899E-01  1.0270645667E+00
                       8.3712334886E-01  7.2844151663E-01  5.4015352914E-01
                       3.3652346360E-01  7.6889009267E-01  4.6066617900E-01
                       6.8845493884E-01  1.4092569352E-01 -2.7787851300E-02
                       9.9147284909E-01  4.1452804500E-01  3.5526463342E-01
                       4.9163875089E-01  1.0845852685E+00  6.4366154266E-01
            znucl       57.00000   42.00000    8.00000

- Timing analysis has been suppressed with timopt=0

 Suggested references for the acknowledgment of ABINIT usage.

 Calculation completed.
.Delivered   0 WARNINGs and   0 COMMENTs to log file.