.Version 9.3.2 of ABINIT

 ABINIT is a project of the Universite Catholique de Louvain,
 Corning Inc. and other collaborators, see ~abinit/doc/developers/contributors.txt .
 acknowledgments of the ABINIT effort.

.Starting date : Wed 14 Jul 2021.
- ( at 23h47 )

- input  file    -> abi.in
- output file    -> abi.out
- root for input  files -> abi-i
- root for output files -> abi-o

- inpspheads : Reading pseudopotential header in XML form from
-   ~/ABINIT_PAW_PBE/paw_pbe_standard/La.xml
- inpspheads : Reading pseudopotential header in XML form from
-   ~/ABINIT_PAW_PBE/paw_pbe_standard/Mo.xml
- inpspheads : Reading pseudopotential header in XML form from
-   ~/ABINIT_PAW_PBE/paw_pbe_standard/O.xml

 DATASET    1 : space group P2_1 (#  4); Bravais mP (primitive monocl.)
     intxc =       0    ionmov =       2      iscf =       7    lmnmax =      32
     lnmax =       8     mgfft =      75  mpssoang =       4    mqgrid =    3519
     natom =      26  nloc_mem =       2    nspden =       1   nspinor =       1
    nsppol =       1      nsym =       2    n1xccc =       1    ntypat =       3
    occopt =       1   xclevel =       2
-    mband =         104        mffmem =           1         mkmem =           1
       mpw =         712          nfft =       27000          nkpt =           2
Pmy_natom=         7
 PAW method is used; the additional fine FFT grid is defined by:
   mgfftf=        75    nfftf =     27000
  Rough estimation (10% accuracy) of disk space for files :

------------- Echo of variables that govern the present computation ------------
-
- outvars: echo of selected default values
-   iomode0 =  0 , fftalg0 =512 , wfoptalg0 = 10
-
- outvars: echo of global parameters not present in the input file
-  max_nthreads =    1
-
 -outvars: echo values of preprocessed input variables --------
-          iomode           1
            acell      1.0000000000E+00  1.0000000000E+00  1.0000000000E+00 Bohr
              amu      1.38905500E+02  9.59400000E+01  1.59994000E+01
        autoparal           1
           bandpp          26
     densfor_pred           6
           diemac      4.00000000E+00
          dilatmx      1.04000000E+00
             ecut      3.00000000E+01 Hartree
           ecutsm      5.00000000E-01 Hartree
-          fftalg         401
           ionmov           2
             iscf           7
              ixc     -116133
           jdtset        1
              kpt      2.50000000E-01  2.50000000E-01  2.50000000E-01
                      -2.50000000E-01  2.50000000E-01  2.50000000E-01
         kptrlatt        2    0    0      0    2    0      0    0    2
          kptrlen      2.65000729E+01
P           mkmem           1
            natom          26
            nband         104
           ndtset           1
            ngfft          72      75      75
          ngfftdg          72      75      75
             nkpt           2
-          npband           2
-           npfft          15
-           npkpt           2
            nstep         100
             nsym           2
            ntime         150
           ntypat           3
              occ      2.000000  2.000000  2.000000  2.000000  2.000000  2.000000
                       2.000000  2.000000  2.000000  2.000000  2.000000  2.000000
                       2.000000  2.000000  2.000000  2.000000  2.000000  2.000000
                       2.000000  2.000000  2.000000  2.000000  2.000000  2.000000
                       2.000000  2.000000  2.000000  2.000000  2.000000  2.000000
                       2.000000  2.000000  2.000000  2.000000  2.000000  2.000000
                       2.000000  2.000000  2.000000  2.000000  2.000000  2.000000
                       2.000000  2.000000  2.000000  2.000000  2.000000  2.000000
                       2.000000  2.000000  2.000000  2.000000  2.000000  2.000000
                       2.000000  2.000000  2.000000  2.000000  2.000000  2.000000
                       2.000000  2.000000  2.000000  2.000000  2.000000  2.000000
                       2.000000  2.000000  2.000000  2.000000  2.000000  2.000000
                       2.000000  2.000000  2.000000  2.000000  2.000000  2.000000
                       2.000000  2.000000  2.000000  2.000000  2.000000  2.000000
                       2.000000  2.000000  2.000000  2.000000  2.000000  2.000000
                       2.000000  2.000000  2.000000  2.000000  2.000000  2.000000
                       2.000000  2.000000  2.000000  2.000000  2.000000  2.000000
                       2.000000  2.000000
        paral_kgb           1
        pawecutdg      3.00000000E+01 Hartree
         pawmixdg           1
         pawxcdev           0
           prteig           0
            rprim      1.3731220330E+01  0.0000000000E+00  2.7701810061E-01
                       0.0000000000E+00  1.3579092230E+01  0.0000000000E+00
                       2.7467469090E-01  0.0000000000E+00  1.3247189114E+01
           shiftk      5.00000000E-01  5.00000000E-01  5.00000000E-01
          spgroup           4
           symrel      1  0  0   0  1  0   0  0  1      -1  0  0   0  1  0   0  0 -1
            tnons      0.0000000  0.0000000  0.0000000     0.0000000  0.5000000  0.5000000
           tolmxf      1.00000000E-10
           tolvrs      1.00000000E-20
            typat      1  1  1  1  2  2  2  2  3  3  3  3  3  3  3  3  3  3  3  3
                       3  3  3  3  3  3
           useylm           1
         wfoptalg         114
              wtk        0.50000    0.50000
           xangst      6.0948334228E+00  6.0769840221E+00  6.2363379883E+00
                       2.8855582760E+00  4.4815774951E+00  1.1691430702E+00
                       1.3894428012E+00  2.4841109612E+00  4.4254195126E+00
                       4.4533663617E+00  8.8870443425E-01  2.4825038736E+00
                       1.3727906421E+00  1.1937410613E+00  8.7560577973E-01
                       5.2276762924E+00  2.3012095433E+00  5.7590064970E+00
                       5.9661339957E+00  4.7866141221E+00  2.7760411640E+00
                       2.2565999315E+00  5.8940826041E+00  4.9027510039E+00
                       2.3980325030E+00  2.2863495683E+00  2.2175015971E+00
                       6.5080602096E+00  1.3842846888E+00  4.8860001628E+00
                       4.9408921348E+00  5.8792226291E+00  1.4341453467E+00
                       9.7621601437E-01  4.9771577497E+00  5.7757573381E+00
                       7.1228574905E+00  1.2838073631E+00  1.9162875290E+00
                       3.8515061143E+00  2.2212830880E+00  4.6651298796E+00
                       2.1606714719E-01  4.8766804240E+00  1.7353594148E+00
                       3.6327701096E+00  5.8141561489E+00  5.9966276212E+00
                       2.4973157570E+00  7.0339162084E+00  1.3837013466E+00
                       2.2426013682E+00  2.2090945516E-01  3.9488892209E+00
                       5.2416748557E+00  3.8137825160E+00  6.7128682800E+00
                       4.8416088808E+00  3.4410431475E+00  2.2679455972E+00
                       1.9356442062E+00  2.6836753112E+00  6.8030438720E+00
                       5.5486320178E+00  6.2765483721E+00  3.8587136289E+00
                       2.5683764254E+00  4.6830084353E+00  3.6355542840E+00
                       4.7705482124E+00  1.0901353744E+00  1.6092659711E-02
                       8.6463110461E-01  2.5767472886E-01 -6.6460519903E-01
                       6.4742935331E+00  3.8505477897E+00  4.3162521428E+00
            xcart      1.1517565995E+01  1.1483835516E+01  1.1784970870E+01
                       5.4529148821E+00  8.4689541090E+00  2.2093602128E+00
                       2.6256663715E+00  4.6942894004E+00  8.3628309019E+00
                       8.4156427931E+00  1.6794079938E+00  4.6912524449E+00
                       2.5941983513E+00  2.2558436793E+00  1.6546551241E+00
                       9.8788765040E+00  4.3486558111E+00  1.0882945077E+01
                       1.1274359324E+01  9.0453897946E+00  5.2459575336E+00
                       4.2643558621E+00  1.1138201926E+01  9.2648566950E+00
                       4.5316246884E+00  4.3205745281E+00  4.1904707177E+00
                       1.2298451452E+01  2.6159189518E+00  9.2332021929E+00
                       9.3369329868E+00  1.1110120643E+01  2.7101419400E+00
                       1.8447809137E+00  9.4054650670E+00  1.0914599579E+01
                       1.3460249941E+01  2.4260443237E+00  3.6212586217E+00
                       7.2782917552E+00  4.1976167000E+00  8.8158178468E+00
                       4.0830773450E-01  9.2155904390E+00  3.2793540360E+00
                       6.8649406109E+00  1.0987162815E+01  1.1331983925E+01
                       4.7192428480E+00  1.3292175275E+01  2.6148165947E+00
                       4.2379024112E+00  4.1745837041E-01  7.4623191566E+00
                       9.9053299549E+00  7.2070044856E+00  1.2685482615E+01
                       9.1493148272E+00  6.5026291602E+00  4.2857960630E+00
                       3.6578374403E+00  5.0714113678E+00  1.2855889788E+01
                       1.0485394926E+01  1.1860957483E+01  7.2919119838E+00
                       4.8535280501E+00  8.8496034207E+00  6.8702019381E+00
                       9.0150296251E+00  2.0600573055E+00  3.0410719604E-02
                       1.6339159937E+00  4.8693466891E-01 -1.2559218127E+00
                       1.2234641682E+01  7.2764807841E+00  8.1565344704E+00
             xred      8.2133467481E-01  8.4569979501E-01  8.7244518054E-01
                       3.9394659771E-01  6.2367601349E-01  1.5854154843E-01
                       1.7866532519E-01  3.4569979501E-01  6.2755481946E-01
                       6.0605340229E-01  1.2367601349E-01  3.4145845157E-01
                       1.8650644314E-01  1.6612625064E-01  1.2100600736E-01
                       7.0330697783E-01  3.2024643012E-01  8.0682144881E-01
                       8.1349355686E-01  6.6612625064E-01  3.7899399264E-01
                       2.9669302217E-01  8.2024643012E-01  6.9317855119E-01
                       3.2383116982E-01  3.1817845072E-01  3.0955726432E-01
                       8.8208267653E-01  1.9264313898E-01  6.7854767134E-01
                       6.7616883018E-01  8.1817845072E-01  1.9044273568E-01
                       1.1791732347E-01  6.9264313898E-01  8.2145232866E-01
                       9.7520583284E-01  1.7866027291E-01  2.5296754846E-01
                       5.1695834573E-01  3.0912351347E-01  6.5467556574E-01
                       2.4794167165E-02  6.7866027291E-01  2.4703245154E-01
                       4.8304165427E-01  8.0912351347E-01  8.4532443426E-01
                       3.3988078830E-01  9.7887068221E-01  1.9027911828E-01
                       2.9748872345E-01  3.0742730319E-02  5.5709247689E-01
                       7.0251127655E-01  5.3074273032E-01  9.4290752311E-01
                       6.6011921170E-01  4.7887068221E-01  3.0972088172E-01
                       2.4707893932E-01  3.7347204671E-01  9.6529492705E-01
                       7.5292106068E-01  8.7347204671E-01  5.3470507295E-01
[...]
  -2.13264   -2.13262   -2.12943   -2.12942   -1.19173   -1.19171   -1.19020   -1.19019
  -1.18658   -1.18657   -1.18446   -1.18444   -1.18101   -1.18100   -1.18075   -1.18073
  -0.98597   -0.98473   -0.98342   -0.98337   -0.52767   -0.52509   -0.51446   -0.51331
  -0.50607   -0.50137   -0.49934   -0.49671   -0.49436   -0.48854   -0.48632   -0.48300
  -0.47953   -0.47814   -0.47647   -0.47257   -0.46935   -0.46629   -0.38640   -0.38377
  -0.38086   -0.37862   -0.37524   -0.37298   -0.36902   -0.36472   -0.36208   -0.36081
  -0.35222   -0.34559   -0.06716   -0.06242   -0.06023   -0.05573   -0.05194   -0.04712
  -0.04466   -0.04175   -0.03894   -0.03513   -0.03053   -0.02837   -0.02549   -0.02073
  -0.02042   -0.01879   -0.01421   -0.01232   -0.01100   -0.00494    0.00317    0.00758
   0.00892    0.02152    0.02447    0.02812    0.03012    0.03449    0.03878    0.04221
   0.04716    0.04914    0.05335    0.05441    0.05690    0.06032    0.06213    0.06561
   0.06887    0.07167    0.07563    0.07868    0.08207    0.08503    0.08623    0.08926
   0.09209    0.09452    0.09520    0.09655    0.10137    0.10499    0.11113    0.11354
 prteigrs : prtvol=0 or 1, do not print more k-points.

--- !EnergyTerms
iteration_state     : {dtset: 1, itime: 140, icycle: 1, }
comment             : Components of total free energy in Hartree
kinetic             :  2.13953747788868E+02
hartree             :  1.86187046614156E+02
xc                  : -9.11961632836832E+01
Ewald energy        : -5.04003965372751E+02
psp_core            :  3.63661436829579E+01
local_psp           : -5.80164872165814E+02
spherical_terms     :  4.45063665707233E+01
total_energy        : -6.94351696165542E+02
total_energy_eV     : -1.88942705382027E+04
...

--- !EnergyTermsDC
iteration_state     : {dtset: 1, itime: 140, icycle: 1, }
comment             : '"Double-counting" decomposition of free energy'
band_energy         : -7.71159923321715E+01
Ewald energy        : -5.04003965372751E+02
psp_core            :  3.63661436829579E+01
xc_dc               : -1.58327486337134E+02
spherical_terms     :  8.72960418433117E+00
total_energy_dc     : -6.94351696174767E+02
total_energy_dc_eV  : -1.88942705384537E+04
...

 rms coord change=  1.2876E-02   atom, delta coord (reduced):
     1        0.002689962699      0.023368582176      0.008110960013
     2       -0.004079464492      0.002107992021      0.001201070554
     3       -0.002689962699      0.023368582176     -0.008110960013
     4        0.004079464492      0.002107992021     -0.001201070554
     5        0.004134496292     -0.006567904600     -0.001046161503
     6        0.004822180934      0.011848945438     -0.007738354166
     7       -0.004134496292     -0.006567904600      0.001046161503
     8       -0.004822180934      0.011848945438      0.007738354166
     9       -0.011161754006      0.001049964923     -0.005696937289
    10        0.014470272156     -0.007828208505      0.032459109941
    11        0.011161754006      0.001049964923      0.005696937289
    12       -0.014470272156     -0.007828208505     -0.032459109941
    13       -0.005449788376     -0.019295893404     -0.019839470816
    14        0.008921832058      0.005585675889     -0.013455421913
    15        0.005449788376     -0.019295893404      0.019839470816
    16       -0.008921832058      0.005585675889      0.013455421913
    17        0.006455479096     -0.000974120238      0.012091059544
    18       -0.004365292363      0.014907670004      0.017217465451
    19        0.004365292363      0.014907670004     -0.017217465451
    20       -0.006455479096     -0.000974120238     -0.012091059544
    21       -0.004052084787     -0.013445361812     -0.008863984458
    22        0.004052084787     -0.013445361812      0.008863984458
    23        0.010341901760      0.019894642782     -0.001299676290
    24       -0.010341901760      0.019894642782      0.001299676290
    25        0.020042793883     -0.030651984674      0.011040794510
    26       -0.020042793883     -0.030651984674     -0.011040794510

 Cartesian components of stress tensor (hartree/bohr^3)
  sigma(1 1)=  5.77746666E-05  sigma(3 2)=  0.00000000E+00
  sigma(2 2)=  9.45188293E-05  sigma(3 1)= -4.93187753E-05
  sigma(3 3)= -4.13552187E-05  sigma(2 1)=  0.00000000E+00

-Cartesian components of stress tensor (GPa)         [Pressure= -1.0880E+00 GPa]
- sigma(1 1)=  1.69978909E+00  sigma(3 2)=  0.00000000E+00
- sigma(2 2)=  2.78083950E+00  sigma(3 1)= -1.45100822E+00
- sigma(3 3)= -1.21671234E+00  sigma(2 1)=  0.00000000E+00

== END DATASET(S) ==============================================================

 -outvars: echo values of variables after computation  --------
-          iomode           1
            acell      1.0000000000E+00  1.0000000000E+00  1.0000000000E+00 Bohr
              amu      1.38905500E+02  9.59400000E+01  1.59994000E+01
        autoparal           1
           bandpp          26
     densfor_pred           6
           diemac      4.00000000E+00
          dilatmx      1.04000000E+00
             ecut      3.00000000E+01 Hartree
           ecutsm      5.00000000E-01 Hartree
           etotal1    -6.9435169617E+02
            fcart1     3.3610539150E-11  1.0099031064E-11  2.7607687923E-11
                       1.9377234172E-13  2.3971968128E-11 -3.3118661570E-11
                      -3.3610539150E-11  1.0099031064E-11 -2.7607687923E-11
                      -1.9377234172E-13  2.3971968128E-11  3.3118661570E-11
                       1.8352451788E-11 -9.1420676317E-11  5.0282057780E-11
                       6.6486786783E-11  5.0051070181E-11 -5.5064280304E-11
                      -1.8352451788E-11 -9.1420676317E-11 -5.0282057780E-11
                      -6.6486786783E-11  5.0051070181E-11  5.5064280304E-11
                      -1.7834105247E-11  1.9840544077E-11  3.0325801474E-11
                       1.0592931122E-11 -3.0727593952E-11  2.3940165145E-11
                       1.7834105247E-11  1.9840544077E-11 -3.0325801474E-11
                      -1.0592931122E-11 -3.0727593952E-11 -2.3940165145E-11
                      -7.8299623542E-12 -1.3281628310E-11 -3.0048965268E-11
                      -6.8669988670E-12 -5.9078721427E-11  5.7577818521E-11
                       7.8299623542E-12 -1.3281628310E-11  3.0048965268E-11
                       6.8669988670E-12 -5.9078721427E-11 -5.7577818521E-11
                      -4.6419567159E-11  5.1789291100E-11 -1.4333764094E-12
                      -4.0755619826E-11  3.8770667991E-12 -4.0718038038E-11
                       4.0755619826E-11  3.8770667991E-12  4.0718038038E-11
                       4.6419567159E-11  5.1789291100E-11  1.4333764094E-12
                      -4.1207904266E-12  3.4822130412E-11  3.0642363920E-11
                       4.1207904266E-12  3.4822130412E-11 -3.0642363920E-11
                       1.2958725174E-11 -3.1994461500E-11  5.8037241205E-11
                      -1.2958725174E-11 -3.1994461500E-11 -5.8037241205E-11
                      -9.3911424483E-12  3.2051979750E-11 -1.5826274208E-11
                       9.3911424483E-12  3.2051979750E-11  1.5826274208E-11
-          fftalg         401
           ionmov           2
             iscf           7
              ixc     -116133
           jdtset        1
              kpt      2.50000000E-01  2.50000000E-01  2.50000000E-01
                      -2.50000000E-01  2.50000000E-01  2.50000000E-01
         kptrlatt        2    0    0      0    2    0      0    0    2
          kptrlen      2.65000729E+01
P           mkmem           1
            natom          26
            nband         104
           ndtset           1
            ngfft          72      75      75
          ngfftdg          72      75      75
             nkpt           2
-          npband           2
-           npfft          15
-           npkpt           2
            nstep         100
             nsym           2
            ntime         150
           ntypat           3
              occ      2.000000  2.000000  2.000000  2.000000  2.000000  2.000000
                       2.000000  2.000000  2.000000  2.000000  2.000000  2.000000
                       2.000000  2.000000  2.000000  2.000000  2.000000  2.000000
                       2.000000  2.000000  2.000000  2.000000  2.000000  2.000000
                       2.000000  2.000000  2.000000  2.000000  2.000000  2.000000
                       2.000000  2.000000  2.000000  2.000000  2.000000  2.000000
                       2.000000  2.000000  2.000000  2.000000  2.000000  2.000000
                       2.000000  2.000000  2.000000  2.000000  2.000000  2.000000
                       2.000000  2.000000  2.000000  2.000000  2.000000  2.000000
                       2.000000  2.000000  2.000000  2.000000  2.000000  2.000000
                       2.000000  2.000000  2.000000  2.000000  2.000000  2.000000
                       2.000000  2.000000  2.000000  2.000000  2.000000  2.000000
                       2.000000  2.000000  2.000000  2.000000  2.000000  2.000000
                       2.000000  2.000000  2.000000  2.000000  2.000000  2.000000
                       2.000000  2.000000  2.000000  2.000000  2.000000  2.000000
                       2.000000  2.000000  2.000000  2.000000  2.000000  2.000000
                       2.000000  2.000000  2.000000  2.000000  2.000000  2.000000
                       2.000000  2.000000
        paral_kgb           1
        pawecutdg      3.00000000E+01 Hartree
         pawmixdg           1
         pawxcdev           0
           prteig           0
            rprim      1.3731220330E+01  0.0000000000E+00  2.7701810061E-01
                       0.0000000000E+00  1.3579092230E+01  0.0000000000E+00
                       2.7467469090E-01  0.0000000000E+00  1.3247189114E+01
           shiftk      5.00000000E-01  5.00000000E-01  5.00000000E-01
          spgroup           4
           strten1     5.7774666592E-05  9.4518829326E-05 -4.1355218741E-05
                       0.0000000000E+00 -4.9318775274E-05  0.0000000000E+00
           symrel      1  0  0   0  1  0   0  0  1      -1  0  0   0  1  0   0  0 -1
            tnons      0.0000000  0.0000000  0.0000000     0.0000000  0.5000000  0.5000000
           tolmxf      1.00000000E-10
           tolvrs      1.00000000E-20
            typat      1  1  1  1  2  2  2  2  3  3  3  3  3  3  3  3  3  3  3  3
                       3  3  3  3  3  3
           useylm           1
         wfoptalg         114
              wtk        0.50000    0.50000
           xangst      6.1155583020E+00  6.2449047208E+00  6.2935910408E+00
                       2.8560904494E+00  4.4967249906E+00  1.1769646920E+00
                       1.3687179219E+00  2.6520316600E+00  4.3681664601E+00
                       4.4828341884E+00  9.0385192974E-01  2.4746822517E+00
                       1.4026808597E+00  1.1465457662E+00  8.6887815463E-01
                       5.2615906770E+00  2.3863530570E+00  5.7054666703E+00
                       5.9362437780E+00  4.7394188271E+00  2.7827687891E+00
                       2.2226855469E+00  5.9792261178E+00  4.9562908306E+00
                       2.3161003620E+00  2.2938943497E+00  2.1759292167E+00
                       6.6179227910E+00  1.3280331699E+00  5.1156633333E+00
                       5.0228242758E+00  5.8867674105E+00  1.4757177270E+00
                       8.6635343291E-01  4.9209062308E+00  5.5460941675E+00
                       7.0803742735E+00  1.1451519720E+00  1.7764117516E+00
                       3.9143785993E+00  2.2614203369E+00  4.5721137506E+00
                       2.5855036423E-01  4.7380250328E+00  1.8752351921E+00
                       3.5698976246E+00  5.8542933977E+00  6.0896437502E+00
                       2.5459803292E+00  7.0269164276E+00  1.4694073301E+00
                       2.2133846535E+00  3.2803218707E-01  4.0689456417E+00
                       5.2708915704E+00  3.9209052479E+00  6.5928118591E+00
                       4.7929443086E+00  3.4340433668E+00  2.1822396136E+00
                       1.9049123555E+00  2.5870603547E+00  6.7403123591E+00
                       5.5793638684E+00  6.1799334156E+00  3.9214451418E+00
                       2.6433343471E+00  4.8259662875E+00  3.6279594462E+00
                       4.6955902906E+00  1.2330932267E+00  2.3687497589E-02
                       1.0118718295E+00  3.7417348863E-02 -5.8426990235E-01
                       6.3270528082E+00  3.6302904097E+00  4.2359168461E+00
            xcart      1.1556730341E+01  1.1801159648E+01  1.1893163459E+01
                       5.3972287601E+00  8.4975787271E+00  2.2241409360E+00
                       2.5865020256E+00  5.0116135331E+00  8.2546383124E+00
                       8.4713289152E+00  1.7080326119E+00  4.6764717217E+00
                       2.6506826768E+00  2.1666574970E+00  1.6419417551E+00
                       9.9429654029E+00  4.5095537341E+00  1.0781769467E+01
                       1.1217874998E+01  8.9562036122E+00  5.2586709026E+00
                       4.2002669632E+00  1.1299099849E+01  9.3660323047E+00
                       4.3767953804E+00  4.3348320987E+00  4.1119103042E+00
                       1.2506061644E+01  2.5096189865E+00  9.6672026881E+00
                       9.4917622948E+00  1.1124378214E+01  2.7887023535E+00
                       1.6371707225E+00  9.2991651018E+00  1.0480599084E+01
                       1.3379968295E+01  2.1640236075E+00  3.3569317098E+00
                       7.3971035331E+00  4.2734651081E+00  8.6400428371E+00
                       4.8858937995E-01  8.9535697228E+00  3.5436809479E+00
                       6.7461288330E+00  1.1063011223E+01  1.1507758935E+01
                       4.8112055619E+00  1.3278947607E+01  2.7767774316E+00
                       4.1826908219E+00  6.1989099634E-01  7.6891929125E+00
                       9.9605415442E+00  7.4094371116E+00  1.2458608859E+01
                       9.0573521133E+00  6.4894014917E+00  4.1238352261E+00
                       3.5997626591E+00  4.8888355597E+00  1.2737344409E+01
                       1.0543469707E+01  1.1678381675E+01  7.4104573631E+00
                       4.9951779936E+00  9.1197546099E+00  6.8558497745E+00
                       8.8733796816E+00  2.3302084947E+00  4.4762883217E-02
                       1.9121606393E+00  7.0708541969E-02 -1.1041101031E+00
                       1.1956397036E+01  6.8602546572E+00  8.0047227608E+00
             xred      8.2402463751E-01  8.6906837718E-01  8.8055614055E-01
                       3.8986713322E-01  6.2578400551E-01  1.5974261899E-01
                       1.7597536249E-01  3.6906837718E-01  6.1944385945E-01
                       6.1013286678E-01  1.2578400551E-01  3.4025738101E-01
                       1.9064093943E-01  1.5955834604E-01  1.1995984586E-01
                       7.0812915876E-01  3.3209537556E-01  7.9908309464E-01
                       8.0935906057E-01  6.5955834604E-01  3.8004015414E-01
                       2.9187084124E-01  8.3209537556E-01  7.0091690536E-01
                       3.1266941582E-01  3.1922841565E-01  3.0386032703E-01
                       8.9655294869E-01  1.8481493048E-01  7.1100678128E-01
                       6.8733058418E-01  8.1922841565E-01  1.9613967297E-01
                       1.0344705131E-01  6.8481493048E-01  7.8899321872E-01
                       9.6975604446E-01  1.5936437950E-01  2.3312807764E-01
                       5.2588017779E-01  3.1470918936E-01  6.4122014383E-01
                       3.0243955540E-02  6.5936437950E-01  2.6687192236E-01
                       4.7411982221E-01  8.1470918936E-01  8.5877985617E-01
                       3.4633626740E-01  9.7789656198E-01  2.0237017782E-01
                       2.9312343108E-01  4.5650400323E-02  5.7430994234E-01
                       7.0687656892E-01  5.4565040032E-01  9.2569005766E-01
                       6.5366373260E-01  4.7789656198E-01  2.9762982218E-01
                       2.4302685453E-01  3.6002668490E-01  9.5643094259E-01
                       7.5697314547E-01  8.6002668490E-01  5.4356905741E-01
                       3.5357788449E-01  6.7160267087E-01  5.1013858429E-01
                       6.4642211551E-01  1.7160267087E-01 -1.0138584288E-02
                       1.4098263793E-01  5.2071626563E-03 -8.6294898929E-02
                       8.5901736207E-01  5.0520716266E-01  5.8629489893E-01
            znucl       57.00000   42.00000    8.00000

- Timing analysis has been suppressed with timopt=0

 Suggested references for the acknowledgment of ABINIT usage.

 Calculation completed.
.Delivered   0 WARNINGs and   0 COMMENTs to log file.